%nprocshared=8
%mem=30GB
%chk=C8H18_3.chk
# opt freq b3lyp/cc-pvdz

6-31g

0 1
 C                  0.00000000    0.00000000    0.00000000
 H                  0.00000000    0.00000000    1.10354612
 H                  1.05348816    0.00000000   -0.32859958
 H                 -0.45268350   -0.94801172   -0.33299548
 C                 -2.26388304    3.63067626   -1.66531851
 H                 -2.27700708    3.58265764   -2.77005103
 H                 -3.32241245    3.58265753   -1.34889499
 C                 -0.47522091    7.65621972   -0.34957272
 H                 -0.46153362    7.70448525    0.75606077
 H                  0.58433572    7.70448536   -0.66572601
 C                 -2.72070607   11.31077770   -2.00135769
 H                 -3.77999797   11.26153029   -1.68518098
 H                 -2.73429078   11.26153051   -3.10674565
 C                 -0.93211477   15.33592183   -0.68566400
 H                  0.12718181   15.38517433   -1.00183106
 H                 -0.91852004   15.38517411    0.41972636
 C                 -3.17855450   18.98995713   -2.33815115
 H                 -4.23814014   18.94140914   -2.02205769
 H                 -3.19230476   18.94140948   -3.44379495
 C                 -1.39183724   23.01619212   -1.02383601
 H                 -0.33331998   23.06453729   -1.34025234
 H                 -1.37871391   23.06453696    0.08088481
 C                 -3.65698017   26.64536721   -2.69008131
 H                 -4.71071635   26.64513566   -2.36153877
 H                 -3.20469940   27.59390537   -2.35738208
 H                 -3.65710372   26.64513599   -3.79384866

