%nprocshared=8
%mem=30GB
%chk=C8H18.chk
# opt freq b3lyp/cc-pvdz

6-31g

0 1
 C                  0.00000000    0.00000000    0.00000000
 H                  0.00000000    0.00000000    1.10354612
 H                  1.05348816    0.00000000   -0.32859958
 H                 -0.45268350   -0.94801172   -0.33299548
 C                 -0.75462768    1.21022542   -0.55510617
 H                 -0.76775172    1.16220679   -1.65983869
 H                 -1.81315709    1.16220668   -0.23868264
 C                 -0.15840697    2.55207324   -0.11652424
 H                 -0.14471967    2.60033877    0.98910925
 H                  0.90114966    2.60033888   -0.43267753
 C                 -0.90690202    3.77025923   -0.66711923
 H                 -1.96619393    3.72101182   -0.35094252
 H                 -0.92048674    3.72101204   -1.77250719
 C                 -0.31070492    5.11197394   -0.22855467
 H                  0.74859166    5.16122645   -0.54472173
 H                 -0.29711019    5.16122623    0.87683569
 C                 -1.05951817    6.32998571   -0.77938372
 H                 -2.11910381    6.28143772   -0.46329025
 H                 -1.07326843    6.28143806   -1.88502752
 C                 -0.46394575    7.67206404   -0.34127867
 H                  0.59457152    7.72040921   -0.65769499
 H                 -0.45082242    7.72040887    0.76344215
 C                 -1.21899339    8.88178907   -0.89669377
 H                 -2.27272957    8.88155752   -0.56815124
 H                 -0.76671262    9.83032723   -0.56399454
 H                 -1.21911693    8.88155785   -2.00046112

