%nprocshared=8
%mem=30GB
%chk=C8H18_0.8.chk
# opt freq b3lyp/cc-pvdz

6-31g

0 1
 C                  0.00000000    0.00000000    0.00000000
 H                  0.00000000    0.00000000    1.10354612
 H                  1.05348816    0.00000000   -0.32859958
 H                 -0.45268350   -0.94801172   -0.33299548
 C                 -0.60370214    0.96818034   -0.44408494
 H                 -0.61682618    0.92016171   -1.54881745
 H                 -1.66223155    0.92016160   -0.12766141
 C                 -0.12672558    2.04165859   -0.09321939
 H                 -0.11303828    2.08992413    1.01241410
 H                  0.93283106    2.08992424   -0.40937268
 C                 -0.72552162    3.01620739   -0.53369538
 H                 -1.78481352    2.96695998   -0.21751867
 H                 -0.73910633    2.96696020   -1.63908334
 C                 -0.24856394    4.08957915   -0.18284373
 H                  0.81073265    4.13883166   -0.49901080
 H                 -0.23496921    4.13883144    0.92254663
 C                 -0.84761453    5.06398857   -0.62350697
 H                 -1.90720018    5.01544058   -0.30741351
 H                 -0.86136479    5.01544092   -1.72915077
 C                 -0.37115660    6.13765123   -0.27302294
 H                  0.68736067    6.18599640   -0.58943926
 H                 -0.35803327    6.18599607    0.83169788
 C                 -0.97519471    7.10543126   -0.71735502
 H                 -2.02893089    7.10519970   -0.38881248
 H                 -0.52291394    8.05396941   -0.38465579
 H                 -0.97531826    7.10520004   -1.82112236

