%chk=H14_0.8.chk
#

sto-6g 6D meta_Lowdin trans_dipo nt3

0 1
 H                 0.0    0.0  -5.6
 H                 0.0    0.0  -4.8
 H                 0.0    0.0  -4.0
 H                 0.0    0.0  -3.2
 H                 0.0    0.0  -2.4
 H                 0.0    0.0  -1.6
 H                 0.0    0.0  -0.8
 H                 0.0    0.0  0.0
 H                 0.0    0.0  0.8
 H                 0.0    0.0  1.6
 H                 0.0    0.0  2.4
 H                 0.0    0.0  3.2
 H                 0.0    0.0  4.0
 H                 0.0    0.0  4.8

