%chk=H14_4.chk
#

sto-6g 6D meta_Lowdin trans_dipo nt3

0 1
 H                 0.0    0.0  -28.0
 H                 0.0    0.0  -24.0
 H                 0.0    0.0  -20.0
 H                 0.0    0.0  -16.0
 H                 0.0    0.0  -12.0
 H                 0.0    0.0  -8.0
 H                 0.0    0.0  -4.0
 H                 0.0    0.0  0.0
 H                 0.0    0.0  4.0
 H                 0.0    0.0  8.0
 H                 0.0    0.0  12.0
 H                 0.0    0.0  16.0
 H                 0.0    0.0  20.0
 H                 0.0    0.0  24.0

