%chk=H14_2.chk
#

sto-6g 6D meta_Lowdin trans_dipo nt3

0 1
 H                 0.0    0.0  -14.0
 H                 0.0    0.0  -12.0
 H                 0.0    0.0  -10.0
 H                 0.0    0.0  -8.0
 H                 0.0    0.0  -6.0
 H                 0.0    0.0  -4.0
 H                 0.0    0.0  -2.0
 H                 0.0    0.0  0.0
 H                 0.0    0.0  2.0
 H                 0.0    0.0  4.0
 H                 0.0    0.0  6.0
 H                 0.0    0.0  8.0
 H                 0.0    0.0  10.0
 H                 0.0    0.0  12.0

