%chk=H4-H4-H4.chk
#

sto-6g 6D meta_Lowdin trans_dipo

0 1
 H                 0.0   0.0    -3.0
 H                 0.0   0.0    -2.0
 H                 0.0   0.0    -1.0
 H                 0.0   0.0     0.0
 H                 0.0   0.0   120.0
 H                 0.0   0.0   121.5
 H                 0.0   0.0   123.0
 H                 0.0   0.0   124.5
 H                 0.0   0.0   244.5
 H                 0.0   0.0   246.5
 H                 0.0   0.0   248.5
 H                 0.0   0.0   250.5

