%chk=H4-H8.chk
#

sto-6g 6D meta_Lowdin trans_dipo

0 1
 H                 -0.43452956   -0.63036308    0.68528819
 H                 -1.12112961   -0.63036308    0.68528819
 H                  1.02471612    0.25491704   -2.12558513
 H                  0.47754364    0.07516992   -2.68082683
 H                 -0.25085273    2.87198428   -0.31042427
 H                 -0.95085278    2.87198428   -0.31042427
 H                 -1.48368521    2.61842301    2.91982704
 H                 -1.80039846    2.98074404    3.62048116
 H               -100.51002803    7.17703740  -39.27755324
 H               -100.76507450    7.43621653  -39.76732612
 H               -100.21575334    6.12363744  -40.33197578
 H               -101.01575334    6.12363744  -40.33197578

