%chk=H6-H6_linear.chk
#

sto-6g 6D meta_Lowdin trans_dipo nt3

0 1
 H                 0.0    0.0     -7.5
 H                 0.0    0.0     -6.0
 H                 0.0    0.0     -4.5
 H                 0.0    0.0     -3.0
 H                 0.0    0.0     -1.5
 H                 0.0    0.0      0.0
 H                 0.0    0.0    120.0
 H                 0.0    0.0    121.5
 H                 0.0    0.0    123.0
 H                 0.0    0.0    124.5
 H                 0.0    0.0    126.0
 H                 0.0    0.0    127.5

