%nprocshared=8
%mem=30GB
%chk=C7H16.chk
# opt freq b3lyp/cc-pvdz

6-31g

0 1
 C                  0.00000000    0.00000000    0.00000000
 H                  0.00000000    0.00000000    1.10358121
 H                  1.05351373    0.00000000   -0.32863135
 H                 -0.45270124   -0.94803074   -0.33299805
 C                 -0.75469495    1.21016611   -0.55514000
 H                 -0.76784030    1.16213642   -1.65991226
 H                 -1.81326135    1.16213224   -0.23870567
 C                 -0.15842113    2.55187120   -0.11652444
 H                 -0.14475701    2.60007291    0.98915579
 H                  0.90116963    2.60007369   -0.43272415
 C                 -0.90692141    3.76994505   -0.66711753
 H                 -1.96628073    3.72065106   -0.35090151
 H                 -0.92048708    3.72065970   -1.77258133
 C                 -0.31103203    5.11154022   -0.22877112
 H                  0.74843235    5.16193560   -0.54505261
 H                 -0.29751230    5.16193512    0.87681284
 C                 -1.05991264    6.32965373   -0.77965763
 H                 -2.11834294    6.27922900   -0.46314182
 H                 -1.07289125    6.27923399   -1.88432586
 C                 -0.45696303    7.66455857   -0.33611761
 H                  0.59081902    7.76082562   -0.66894927
 H                 -1.01714893    8.51952642   -0.74819785
 H                 -0.46272526    7.76082692    0.76324081

