%nprocshared=8
%mem=30GB
%chk=C6H12_4.chk
# opt freq b3lyp/cc-pvdz

cc-pVDZ

0 1
 C                  0.00000000    0.00000000    0.00000000
 C                  0.00000000    0.00000000    1.53597122
 C                  1.42900448    0.00000000    2.09899445
 C                  2.25600098    1.16534214    1.53579461
 C                  2.25601565    1.16533890   -0.00017603
 C                  0.82701598    1.16532249   -0.56321595
 H                  1.33830870    0.17571321    6.50843186
 H                 -2.12833389    3.60164071    2.98504171
 H                 -2.25050102   -3.47422990    3.06803223
 H                  1.70536430   -3.82019672   -1.44888092
 H                 -4.13564706    0.17552806   -1.53227038
 H                  0.55050320    4.98549179    2.98464249
 H                  6.39163439    0.98995336    3.06811777
 H                  4.50647459    4.63959438   -1.53224086
 H                  4.38441500   -2.43627404   -1.44921940
 H                 -1.14622101    4.98565486    0.49168813
 H                  0.91779191    0.98944241   -4.97264506
 H                  3.40224013   -3.82028661    1.04392217

