%nprocshared=8
%mem=30GB
%chk=C6H12_z.chk
# opt freq b3lyp/cc-pvdz

cc-pVDZ

0 1
 C              
 C                  1            B1
 C                  2            B2    1            A1
 C                  3            B3    2            A2    1            D1    0
 C                  4            B4    3            A3    2            D2    0
 C                  5            B5    4            A4    3            D3    0
 H                  3            B6    2            A5    1            D4    0
 H                  2            B7    1            A6    6            D5    0
 H                  2            B6    1            A7    6            D6    0
 H                  1            B7    6            A8    5            D7    0
 H                  1            B6    6            A9    5            D8    0
 H                  4            B7    3           A10    2            D9    0
 H                  4            B6    3           A11    2           D10    0
 H                  5            B6    4           A12    3           D11    0
 H                  5            B7    4           A13    3           D12    0
 H                  6            B7    5           A14    4           D13    0
 H                  6            B6    5           A15    4           D14    0
 H                  3            B7    2           A16    1           D15    0

   B6             1.10346724
   B7             1.10683745
   B1             1.53597122
   B2             1.53591958
   B3             1.53594908
   B4             1.53597064
   B5             1.53592123
   A1           111.50428275
   A2           111.50198849
   A3           111.51114853
   A4           111.50438044
   A5           110.30913379
   A6           109.10496312
   A7           110.31013857
   A8           109.10196854
   A9           110.30590593
   A10          109.10185382
   A11          110.30648515
   A12          110.31038763
   A13          109.10497408
   A14          109.10568610
   A15          110.30872975
   A16          109.10564654
   D1            54.63324388
   D2           -54.63748953
   D3            54.63780129
   D4           177.56716682
   D5            65.94319190
   D6          -177.57106095
   D7           -65.94585283
   D8           177.57178451
   D9            65.94303631
   D10         -177.57447547
   D11          177.57148154
   D12          -65.94271916
   D13           65.95142547
   D14         -177.56497679
   D15          -65.94922506

