%nprocshared=8
%mem=30GB
%chk=C6H12_z.chk
# opt freq b3lyp/cc-pvdz

cc-pVDZ

0 1
 C                  0.00000000    0.00000000    0.00000000
 C                  0.00000000    0.00000000    1.53597122
 C                  1.42900448    0.00000000    2.09899445
 C                  2.25600098    1.16534214    1.53579461
 C                  2.25601565    1.16533890   -0.00017603
 C                  0.82701598    1.16532249   -0.56321595
 H                  1.36098264    0.13178491    5.40607251
 H                 -1.59625042    2.70123053    2.62277409
 H                 -1.68787576   -2.60567243    2.68501698
 H                  1.27902322   -2.86514754   -1.08666069
 H                 -3.10173529    0.13164604   -1.14920279
 H                  0.97687764    4.03045438    2.62243052
 H                  5.35772604    1.03380055    2.68503698
 H                  3.94385986    3.77103051   -1.14922465
 H                  3.85231517   -1.53587080   -1.08695856
 H                 -0.65291177    4.03057177    0.22796211
 H                  0.89509793    1.03341243   -3.87028778
 H                  2.90893122   -2.86521496    1.30769024

