%nprocshared=8
%mem=30GB
%chk=C6H12_z.chk
# opt freq b3lyp/cc-pvdz

cc-pVDZ

0 1
 C                  0.00000000    0.00000000    0.00000000
 C                  0.00000000    0.00000000    1.53597122
 C                  1.42900448    0.00000000    2.09899445
 C                  2.25600098    1.16534214    1.53579461
 C                  2.25601565    1.16533890   -0.00017603
 C                  0.82701598    1.16532249   -0.56321595
 H                  1.39499356    0.06589245    3.75253348
 H                 -0.79812521    1.35061527    2.07937266
 H                 -0.84393788   -1.30283621    2.11049410
 H                  0.63951161   -1.43257377   -0.54333035
 H                 -1.55086765    0.06582302   -0.57460139
 H                  1.61643931    2.59789826    2.07911257
 H                  3.80686351    1.09957135    2.11041580
 H                  3.09993775    2.46818471   -0.57470034
 H                  3.05416541   -0.18526595   -0.54356730
 H                  0.08705210    2.59794713   -0.16762692
 H                  0.86105695    1.09936746   -2.21675186
 H                  2.16896785   -1.43260748    1.70334234

