%nprocshared=8
%mem=30GB
%chk=benzene.chk
# opt freq b3lyp/6-31g

6-31G

0 1
 C                 -0.56307183   -1.28238548   -0.00000345
 C                 -1.39566300   -0.11703500    0.00004800
 C                 -0.79923300    1.15012500   -0.00002800
 C                  0.59647900    1.26719100    0.00000700
 C                  1.39565900    0.11708500    0.00002500
 C                  0.79919100   -1.15015300   -0.00003900
 H                 -0.99956384   -2.27633313   -0.00001457
 H                 -2.47737674   -0.20779721   -0.01089478
 H                 -1.41863700    2.04163800   -0.00004100
 H                  1.05871500    2.24943100   -0.00000700
 H                  2.47743700    0.20774900    0.00001600
 H                  1.41870600   -2.04159000   -0.00006659

