%chk=H4_0.65.chk
#

sto-6g 6D meta_Lowdin trans_dipo

0 1
 H                 0.0    0.0    -1.3
 H                 0.0    0.0    -0.65
 H                 0.0    0.0    0.0
 H                 0.0    0.0    0.65

