%chk=H4_4.chk
#

sto-6g 6D meta_Lowdin trans_dipo

0 1
 H                0.0    0.0    -8.0
 H                0.0    0.0    -4.0
 H                0.0    0.0    0.0
 H                0.0    0.0    4.0

