%chk=H40_0.7.chk
#

sto-6g 6D

0 1
 H                 0.0  0.0   -14.0
 H                 0.0  0.0   -13.3
 H                 0.0  0.0   -12.6
 H                 0.0  0.0   -11.9
 H                 0.0  0.0   -11.2
 H                 0.0  0.0   -10.5
 H                 0.0  0.0   -9.8
 H                 0.0  0.0   -9.1
 H                 0.0  0.0   -8.4
 H                 0.0  0.0   -7.7
 H                 0.0  0.0   -7.0
 H                 0.0  0.0   -6.3
 H                 0.0  0.0   -5.6
 H                 0.0  0.0   -4.9
 H                 0.0  0.0   -4.2
 H                 0.0  0.0   -3.5
 H                 0.0  0.0   -2.8
 H                 0.0  0.0   -2.1
 H                 0.0  0.0   -1.4
 H                 0.0  0.0   -0.7
 H                 0.0  0.0   0.0
 H                 0.0  0.0   0.7
 H                 0.0  0.0   1.4
 H                 0.0  0.0   2.1
 H                 0.0  0.0   2.8
 H                 0.0  0.0   3.5
 H                 0.0  0.0   4.2
 H                 0.0  0.0   4.9
 H                 0.0  0.0   5.6
 H                 0.0  0.0   6.3
 H                 0.0  0.0   7.0
 H                 0.0  0.0   7.7
 H                 0.0  0.0   8.4
 H                 0.0  0.0   9.1
 H                 0.0  0.0   9.8
 H                 0.0  0.0   10.5
 H                 0.0  0.0   11.2
 H                 0.0  0.0   11.9
 H                 0.0  0.0   12.6
 H                 0.0  0.0   13.3

