%chk=H40_0.85.chk
#

sto-6g 6D meta_Lowdin trans_dipo

0 1
 H                 0.0  0.0   -17.0
 H                 0.0  0.0   -16.15
 H                 0.0  0.0   -15.3
 H                 0.0  0.0   -14.45
 H                 0.0  0.0   -13.6
 H                 0.0  0.0   -12.75
 H                 0.0  0.0   -11.9
 H                 0.0  0.0   -11.05
 H                 0.0  0.0   -10.2
 H                 0.0  0.0   -9.35
 H                 0.0  0.0   -8.5
 H                 0.0  0.0   -7.65
 H                 0.0  0.0   -6.8
 H                 0.0  0.0   -5.95
 H                 0.0  0.0   -5.1
 H                 0.0  0.0   -4.25
 H                 0.0  0.0   -3.4
 H                 0.0  0.0   -2.55
 H                 0.0  0.0   -1.7
 H                 0.0  0.0   -0.85
 H                 0.0  0.0   0.0
 H                 0.0  0.0   0.85
 H                 0.0  0.0   1.7
 H                 0.0  0.0   2.55
 H                 0.0  0.0   3.4
 H                 0.0  0.0   4.25
 H                 0.0  0.0   5.1
 H                 0.0  0.0   5.95
 H                 0.0  0.0   6.8
 H                 0.0  0.0   7.65
 H                 0.0  0.0   8.5
 H                 0.0  0.0   9.35
 H                 0.0  0.0   10.2
 H                 0.0  0.0   11.05
 H                 0.0  0.0   11.9
 H                 0.0  0.0   12.75
 H                 0.0  0.0   13.6
 H                 0.0  0.0   14.45
 H                 0.0  0.0   15.3
 H                 0.0  0.0   16.15

