%chk=H40_2.chk
#

sto-6g 6D meta_Lowdin trans_dipo

0 1
 H                 0.0  0.0   -40.0
 H                 0.0  0.0   -38.0
 H                 0.0  0.0   -36.0
 H                 0.0  0.0   -34.0
 H                 0.0  0.0   -32.0
 H                 0.0  0.0   -30.0
 H                 0.0  0.0   -28.0
 H                 0.0  0.0   -26.0
 H                 0.0  0.0   -24.0
 H                 0.0  0.0   -22.0
 H                 0.0  0.0   -20.0
 H                 0.0  0.0   -18.0
 H                 0.0  0.0   -16.0
 H                 0.0  0.0   -14.0
 H                 0.0  0.0   -12.0
 H                 0.0  0.0   -10.0
 H                 0.0  0.0   -8.0
 H                 0.0  0.0   -6.0
 H                 0.0  0.0   -4.0
 H                 0.0  0.0   -2.0
 H                 0.0  0.0   0.0
 H                 0.0  0.0   2.0
 H                 0.0  0.0   4.0
 H                 0.0  0.0   6.0
 H                 0.0  0.0   8.0
 H                 0.0  0.0   10.0
 H                 0.0  0.0   12.0
 H                 0.0  0.0   14.0
 H                 0.0  0.0   16.0
 H                 0.0  0.0   18.0
 H                 0.0  0.0   20.0
 H                 0.0  0.0   22.0
 H                 0.0  0.0   24.0
 H                 0.0  0.0   26.0
 H                 0.0  0.0   28.0
 H                 0.0  0.0   30.0
 H                 0.0  0.0   32.0
 H                 0.0  0.0   34.0
 H                 0.0  0.0   36.0
 H                 0.0  0.0   38.0

