%chk=H20_0.9.chk
#

sto-6g 6D meta_Lowdin trans_dipo

0 1
 H                 0.0  0.0   -9.0
 H                 0.0  0.0   -8.1
 H                 0.0  0.0   -7.2
 H                 0.0  0.0   -6.3
 H                 0.0  0.0   -5.4
 H                 0.0  0.0   -4.5
 H                 0.0  0.0   -3.6
 H                 0.0  0.0   -2.7
 H                 0.0  0.0   -1.8
 H                 0.0  0.0   -0.9
 H                 0.0  0.0   0.0
 H                 0.0  0.0   0.9
 H                 0.0  0.0   1.8
 H                 0.0  0.0   2.7
 H                 0.0  0.0   3.6
 H                 0.0  0.0   4.5
 H                 0.0  0.0   5.4
 H                 0.0  0.0   6.3
 H                 0.0  0.0   7.2
 H                 0.0  0.0   8.1

