%nprocshared=4
%mem=24GB
%chk=H2_opt.chk
# opt freq b3lyp/cc-pvdz 6d

sto-6g 6D meta_Lowdin trans_dipo

0 1
 H                  0.00000000    0.00000000   0.0
 H                  0.00000000    0.00000000   1.5

