%chk=H2-H8.chk
#

sto-6g 6D meta_Lowdin trans_dipo

0 1
 H                 -0.64659959    0.27223724    0.07408846
 H                 -1.12061594    0.60134683   -0.29795322
 H                 -0.40411985    1.27743928   -1.06311459
 H                 -0.58169974    0.52336716   -1.26271600
 H                 -0.54787703    2.28964426    0.30824969
 H                 -0.41707292    1.95354875   -0.29169211
 H                 -1.36286201    1.19549889   -1.09185003
 H                 -2.01546878    1.25273809   -1.63344775
 H               -100.83103507    2.35037187  -34.04145693
 H               -102.33103507    2.35037187  -34.04145693

