%nprocshared=24
%mem=180GB
%chk=C5H8_z.chk
#p opt freq b3lyp/cc-pvdz geom=connectivity

6-31G

0 1
 C              
 H                  1            B1
 H                  1            B2    2            A1
 C                  1            B3    3            A2    2            D1    0
 H                  4            B4    1            A3    3            D2    0
 C                  4            B5    1            A4    3            D3    0
 H                  6            B6    4            A5    1            D4    0
 H                  6            B7    4            A6    1            D5    0
 C                  6            B8    4            A7    1            D6    0
 H                  9            B9    6            A8    4            D7    0
 C                  9           B10    6            A9    4            D8    0
 H                 11           B11    9           A10    6            D9    0
 H                 11           B12    9           A11    6           D10    0

   B3             1.33579171
   B5             1.50998427
   B8             1.50994770
   B10            1.33578346
   B1             1.09509085
   B2             1.09305885
   B4             1.09734620
   B6             1.10508276
   B7             1.10511184
   B9             1.09735314
   B11            1.09509194
   B12            1.09305162
   A1           116.97820724
   A2           121.53807391
   A3           119.34107039
   A4           125.14171199
   A5           108.92561955
   A6           109.67378471
   A7           112.34486903
   A8           115.49973699
   A9           125.14722067
   A10          121.48462434
   A11          121.53169498
   D1          -179.72434103
   D2            -0.64772880
   D3          -179.65757547
   D4            -3.62481236
   D5          -120.62342810
   D6           118.09336857
   D7           -60.97984973
   D8           118.09219023
   D9             0.62535743
   D10         -179.68345041

 1 2 1.0 3 1.0 4 2.0
 2
 3
 4 5 1.0 6 1.0
 5
 6 7 1.0 8 1.0 9 1.0
 7
 8
 9 10 1.0 11 2.0
 10
 11 12 1.0 13 1.0
 12
 13

