%nprocshared=24
%mem=180GB
%chk=C5H8_3.chk
#p opt freq b3lyp/cc-pvdz

6-31G

0 1
 C                  0.00000000    0.00000000    0.00000000
 H                  0.00000000    0.00000000    1.09509085
 H                  0.97411124    0.00000000   -0.49586786
 C                 -3.41742591   -0.01643223   -2.09284151
 H                 -3.37644931   -0.01023047   -3.18940484
 C                 -7.57562143    0.00433576   -0.29577415
 H                 -7.49079966   -0.05150943    0.80463236
 H                 -8.12827920   -0.89375935   -0.62632935
 C                 -9.93572313    3.69188829   -1.45825204
 H                 -9.50438604    4.64899606   -1.13875723
 C                -13.35155291    3.67901455   -3.55367520
 H                -13.80976743    2.74471063   -3.89476461
 H                -13.87065575    4.60715031   -3.80637684


