%nprocshared=24
%mem=180GB
%chk=C5H8_0.8.chk
#p opt freq b3lyp/cc-pvdz

6-31G

0 1
 C                  0.00000000    0.00000000    0.00000000
 H                  0.00000000    0.00000000    1.09509085
 H                  0.97411124    0.00000000   -0.49586786
 C                 -0.91131357   -0.00438193   -0.55809107
 H                 -0.87033698    0.00181984   -1.65465440
 C                 -2.02016572    0.00115620   -0.07887311
 H                 -1.93534394   -0.05468899    1.02153340
 H                 -2.57282349   -0.89693891   -0.40942831
 C                 -2.64952617    0.98450354   -0.38886721
 H                 -2.21818908    1.94161132   -0.06937240
 C                 -3.56041411    0.98107055   -0.94764672
 H                 -4.01862863    0.04676662   -1.28873613
 H                 -4.07951694    1.90920630   -1.20034836

