%nprocshared=24
%mem=180GB
%chk=C5H8_1.5.chk
#p opt freq b3lyp/cc-pvdz

6-31G

0 1
 C                  0.00000000    0.00000000    0.00000000
 H                  0.00000000    0.00000000    1.09509085
 H                  0.97411124    0.00000000   -0.49586786
 C                 -1.70871295   -0.00821612   -1.04642076
 H                 -1.66773635   -0.00201435   -2.14298409
 C                 -3.78781072    0.00216788   -0.14788707
 H                 -3.70298894   -0.05367731    0.95251944
 H                 -4.34046849   -0.89592723   -0.47844228
 C                 -4.96786156    1.84594414   -0.72912602
 H                 -4.53652447    2.80305192   -0.40963121
 C                 -6.67577646    1.83950728   -1.77683760
 H                 -7.13399098    0.90520335   -2.11792701
 H                 -7.19487929    2.76764303   -2.02953924

