%nprocshared=24
%mem=180GB
%chk=C5H8_2.chk
#p opt freq b3lyp/cc-pvdz

6-31G

0 1
 C                  0.00000000    0.00000000    0.00000000
 H                  0.00000000    0.00000000    1.09509085
 H                  0.97411124    0.00000000   -0.49586786
 C                 -2.27828394   -0.01095482   -1.39522767
 H                 -2.23730734   -0.00475306   -2.49179101
 C                 -5.05041429    0.00289051   -0.19718276
 H                 -4.96559252   -0.05295468    0.90322375
 H                 -5.60307206   -0.89520460   -0.52773797
 C                 -6.62381542    2.46125886   -0.97216803
 H                 -6.19247833    3.41836663   -0.65267321
 C                 -8.90103528    2.45267637   -2.36911680
 H                 -9.35924980    1.51837244   -2.71020621
 H                 -9.42013811    3.38081212   -2.62181844

