%nprocshared=8
%mem=30GB
%chk=benzene.chk
# opt freq b3lyp/6-31g

6-31G

0 1
 C                 -0.59643298   -1.26721302   -0.00000201
 C                 -1.39071962   -0.16590630    0.00005013
 C                 -0.79923300    1.15012500   -0.00002800
 C                  0.55119678    1.28753287    0.00000616
 C                  1.39565900    0.11708500    0.00002500
 C                  0.83882379   -1.12155293   -0.00003962
 H                 -1.05879398   -2.24939402   -0.00001201
 H                 -2.46858443   -0.29455263   -0.01089100
 H                 -1.41863700    2.04163800   -0.00004100
 H                  0.97834901    2.28553012   -0.00000848
 H                  2.47743700    0.20774900    0.00001600
 H                  1.48907209   -1.99082613   -0.00006771

