%nprocshared=8
%mem=30GB
%chk=benzene.chk
# opt freq b3lyp/6-31g

6-31G

0 1
 C                 -0.59643298   -1.26721302   -0.00000201
 C                 -1.39823347   -0.08046714    0.00004880
 C                 -0.79923300    1.15012500   -0.00002800
 C                  0.63164448    1.25003526    0.00000806
 C                  1.39565900    0.11708500    0.00002500
 C                  0.76882456   -1.17068575   -0.00004029
 H                 -1.05879398   -2.24939402   -0.00001201
 H                 -2.48195241   -0.14288224   -0.01089335
 H                 -1.41863700    2.04163800   -0.00004100
 H                  1.12112611    2.21898587   -0.00000513
 H                  2.47743700    0.20774900    0.00001600
 H                  1.36479218   -2.07803428   -0.00006888

