%nprocshared=8
%mem=30GB
%chk=benzene.chk
# opt freq b3lyp/6-31g

6-31G

0 1
 C                 -0.59643298   -1.26721302   -0.00000201
 C                 -1.39748303   -0.09266373    0.00004853
 C                 -0.79923300    1.15012500   -0.00002800
 C                  0.62070695    1.25550181    0.00000773
 C                  1.39565900    0.11708500    0.00002500
 C                  0.77900631   -1.16392992   -0.00003986
 H                 -1.05879398   -2.24939402   -0.00001201
 H                 -2.48061604   -0.16453356   -0.01089382
 H                 -1.41863700    2.04163800   -0.00004100
 H                  1.10171437    2.22868700   -0.00000571
 H                  2.47743700    0.20774900    0.00001600
 H                  1.38286925   -2.06604317   -0.00006812

