%chk=H2-2.chk
#

sto-6g 6D meta_Lowdin trans_dipo

0 1
 H                 -5.59731250    0.98020876    3.68523364
 H                 -6.01542147    1.40509258    2.88232727
 H                 -5.17961770   -0.51499181    2.18858162
 H                 -6.67961770   -0.51499181    2.18858162

