%chk=H2-H2.chk
#

sto-6g 6D meta_Lowdin trans_dipo

0 1
 H                  0.0    0.0    -1.0
 H                  0.0    0.0     0.0
 H                  0.0    0.0   120.0
 H                  0.0    0.0   121.5

