%nprocshared=4
%mem=30GB
%chk=C3H6_0.8.chk
# opt freq b3lyp/cc-pvdz

cc-pVDZ

0 1
 C                  0.00000000    0.00000000    0.00000000
 C                  0.00000000    0.00000000    1.20865718
 C                  1.04673314    0.00000000    0.60433780
 H                 -0.29672009   -0.91755100   -0.51391598
 H                 -0.29672009    0.91755100   -0.51391598
 H                 -0.29669669   -0.91754800    1.72258742
 H                 -0.29669669    0.91754800    1.72258742
 H                  1.64016083    0.91754700    0.60438063
 H                  1.64016083   -0.91754700    0.60438063

