%nprocshared=4
%mem=30GB
%chk=C3H6_2.chk
# opt freq b3lyp/cc-pvdz

cc-pVDZ

0 1
 C                  0.00000000    0.00000000    0.00000000
 C                  0.00000000    0.00000000    3.02164294
 C                  2.61683284    0.00000000    1.51084450
 H                 -0.29672009   -0.91755100   -0.51391598
 H                 -0.29672009    0.91755100   -0.51391598
 H                 -0.29669669   -0.91754800    3.53557319
 H                 -0.29669669    0.91754800    3.53557319
 H                  3.21026054    0.91754700    1.51088733
 H                  3.21026054   -0.91754700    1.51088733

