%nprocshared=4
%mem=30GB
%chk=C3H6_4.chk
# opt freq b3lyp/cc-pvdz

cc-pVDZ

0 1
 C                  0.00000000    0.00000000    0.00000000
 C                  0.00000000    0.00000000    6.04328588
 C                  5.23366568    0.00000000    3.02168899
 H                 -0.29672009   -0.91755100   -0.51391598
 H                 -0.29672009    0.91755100   -0.51391598
 H                 -0.29669669   -0.91754800    6.55721613
 H                 -0.29669669    0.91754800    6.55721613
 H                  5.82709338    0.91754700    3.02173183
 H                  5.82709338   -0.91754700    3.02173183

