%nprocshared=4
%mem=30GB
%chk=C3H6_1.5.chk
# opt freq b3lyp/cc-pvdz

cc-pVDZ

0 1
 C                  0.00000000    0.00000000    0.00000000
 C                  0.00000000    0.00000000    2.26623221
 C                  1.96262463    0.00000000    1.13313337
 H                 -0.29672009   -0.91755100   -0.51391598
 H                 -0.29672009    0.91755100   -0.51391598
 H                 -0.29669669   -0.91754800    2.78016245
 H                 -0.29669669    0.91754800    2.78016245
 H                  2.55605233    0.91754700    1.13317621
 H                  2.55605233   -0.91754700    1.13317621

