%nprocshared=8
%mem=30GB
%chk=COT-boat_opt.chk
# opt freq b3lyp/cc-pvdz

cc-pVDZ

0 1
 C                 -1.31875886    1.13540196    0.00000000
 C                  0.19535814    1.13540196    0.00000000
 C                 -0.69072286    4.64184196    0.00000000
 C                  0.84976014    2.21811996    0.83804500
 C                 -0.58182637    4.33626006    1.39475873
 C                  0.16054959    3.12108408    1.90934656
 H                 -1.67971786    0.56891796    0.90150800
 H                  0.55630414    1.20084696   -1.06183200
 H                  1.71985780    1.54305555    0.63042414
 H                 -0.44898033    5.29427624   -0.88201118
 H                 -0.07960007    5.24687781    1.82190782
 H                 -0.17332525    2.94425995    2.96851033
 C                 -2.01001086    2.48252196   -0.00035200
 H                 -2.87264309    1.77752729    0.14417476
 C                 -1.34512686    3.55911096   -0.83802200
 H                 -0.59430986    3.10049796   -1.53216300

