%nprocshared=8
%mem=30GB
%chk=COT-boat_0.92.chk
# opt freq b3lyp/cc-pvdz

cc-pVDZ

0 1
 C                  0.00000000    0.00000000    0.00000000
 C                  0.00000000    0.00000000    1.34485360
 C                  1.07497052    0.00000000    2.17221890
 C                  2.11040945   -0.85821547    2.17203736
 C                  2.30942895   -1.91461167    1.34464977
 C                  2.30907167   -1.91475190   -0.00020595
 C                  2.10998906   -0.85858242   -0.82771860
 C                  1.07493313    0.00006894   -0.82743806
 H                 -0.89369282    0.08041015   -0.46306184
 H                 -0.89373165    0.07970074    1.80796532
 H                  1.04343034    0.68754698    2.91105271
 H                  2.79195312   -0.76180253    2.91078588
 H                  2.55369037   -2.77800189    1.80778125
 H                  2.55248625   -2.77836082   -0.46333412
 H                  2.79157536   -0.76214933   -1.56645249
 H                  1.04345119    0.68760662   -1.56627891

