%nprocshared=8
%mem=30GB
%chk=C8H8_opt.chk
# opt freq b3lyp/cc-pvdz

cc-pVDZ

0 1
 C                 -1.31875886    1.13540196    0.00000000
 C                  0.19535814    1.13540196    0.00000000
 C                 -0.69072286    4.64184196    0.00000000
 C                  0.84976014    2.21811996    0.83804500
 C                  0.82339214    4.64184696    0.00008400
 C                  1.51464814    3.29472396    0.00040500
 H                 -1.67971786    0.56891796    0.90150800
 H                  0.55630414    1.20084696   -1.06183200
 H                  0.09894114    2.67671496    1.53219900
 H                 -1.05171486    4.57642896    1.06181900
 H                  1.18441114    5.20837396   -0.90137300
 H                  2.56113614    3.45170196    0.38091500
 C                 -2.01001086    2.48252196   -0.00035200
 H                 -2.11706486    2.83350896    1.06143300
 C                 -1.34512686    3.55911096   -0.83802200
 H                 -0.59430986    3.10049796   -1.53216300

