%nprocshared=8
%mem=30GB
%chk=COT-boat_opt.chk
# opt freq b3lyp/cc-pvdz

cc-pVDZ

0 1
 C              
 C                  1            B1
 C                  1            B2    2            A1
 C                  2            B3    1            A2    3            D1    0
 C                  3            B4    1            A3    2            D2    0
 C                  5            B5    3            A4    1            D3    0
 H                  1            B6    2            A5    4            D4    0
 H                  2            B7    1            A6    4            D5    0
 H                  4            B8    2            A7    1            D6    0
 H                  3            B9    1            A8    2            D7    0
 H                  5           B10    3            A9    1            D8    0
 H                  6           B11    5           A10    3            D9    0
 C                  1           B12    2           A11    4           D10    0
 H                 13           B13    1           A12    2           D11    0
 C                  3           B14    1           A13   13           D12    0
 H                 15           B15    3           A14    1           D13    0

   B1             1.47447720
   B2             3.26023010
   B3             1.34485055
   B4             1.47448089
   B5             1.34485577
   B6             1.09754583
   B7             1.09754861
   B8             1.09754979
   B9             1.09752791
   B10            1.09755540
   B11            1.09753490
   B12            1.34485360
   B13            1.09754681
   B14            1.34486713
   B15            1.09755215
   A1            83.34918607
   A2           127.58852438
   A3            83.35965591
   A4           127.58771351
   A5           114.93639092
   A6           114.93836364
   A7           117.30276301
   A8           159.18286776
   A9           114.93653507
   A10          117.30258037
   A11          127.58786330
   A12          117.29958746
   A13           46.50050718
   A14          117.30095066
   D1            38.31525398
   D2           -59.43732149
   D3            38.27590391
   D4          -131.35547362
   D5           174.98478790
   D6           174.91081181
   D7            93.19397702
   D8          -146.72839737
   D9           174.93225403
   D10           53.68514920
   D11          174.90031241
   D12          -25.76129146
   D13         -163.80023470

