%nprocshared=8
%mem=30GB
%chk=COT-boat_2.chk
# opt freq b3lyp/cc-pvdz

cc-pVDZ

0 1
 C                  0.00000000    0.00000000    0.00000000
 C                  0.00000000    0.00000000    1.34485360
 C                  2.33689227    0.00000000    3.14347368
 C                  3.37233120   -0.85821547    3.14329215
 C                  3.80498245   -3.15472984    1.34462277
 C                  3.80462517   -3.15487007   -0.00023294
 C                  3.37183704   -0.85885026   -1.79917285
 C                  2.33678111   -0.00019890   -1.79889231
 H                 -1.94281108    0.17480472   -1.00665649
 H                 -1.94286946    0.17355249    2.35161844
 H                  2.26832666    1.49466711    4.74963388
 H                  4.85394751   -0.64862217    4.74926680
 H                  4.33598556   -5.03166521    2.35143041
 H                  4.33378739   -5.03228112   -1.00703351
 H                  4.85354637   -0.64921312   -3.40511610
 H                  2.26834212    1.49444766   -3.40506746

