%nprocshared=8
%mem=30GB
%chk=COT-boat_4.chk
# opt freq b3lyp/cc-pvdz

cc-pVDZ

0 1
 C                  0.00000000    0.00000000    0.00000000
 C                  0.00000000    0.00000000    1.34485360
 C                  4.67378533    0.00000000    4.94209438
 C                  5.70922426   -0.85821547    4.94191284
 C                  6.57452676   -5.45124421    1.34457409
 C                  6.57416948   -5.45138444   -0.00028162
 C                  5.70859306   -0.85934404   -3.59816205
 C                  4.67353714   -0.00069268   -3.59788151
 H                 -3.88562128    0.34960936   -2.01331252
 H                 -3.88571613    0.34735007    3.35838283
 H                  4.53665408    2.98933490    8.15441550
 H                  8.67245689   -0.43902887    8.15386215
 H                  7.63653298   -9.20511495    3.35818936
 H                  7.63249392   -9.20620655   -2.01388276
 H                  8.67201106   -0.44006986   -6.81004782
 H                  4.53665916    2.98860044   -6.81023181

