%nprocshared=8
%mem=30GB
%chk=COT-boat_1.5.chk
# opt freq b3lyp/cc-pvdz

cc-pVDZ

0 1
 C                  0.00000000    0.00000000    0.00000000
 C                  0.00000000    0.00000000    1.34485360
 C                  1.75266980    0.00000000    2.69381912
 C                  2.78810873   -0.85821547    2.69363759
 C                  3.11259709   -2.58060085    1.34463586
 C                  3.11223981   -2.58074109   -0.00021986
 C                  2.78764864   -0.85872584   -1.34942509
 C                  1.75259271   -0.00007448   -1.34914456
 H                 -1.45710831    0.13110354   -0.75499237
 H                 -1.45715720    0.13010222    2.09992700
 H                  1.70124559    1.12100033    3.89843927
 H                  3.89932096   -0.70102049    3.89811858
 H                  3.51084936   -3.98830217    2.09974147
 H                  3.50911135   -3.98879895   -0.75532005
 H                  3.89893064   -0.70149799   -2.55388253
 H                  1.70126346    1.12091061   -2.55377610

