%nprocshared=4
%mem=24GB
%chk=H6_ring_opt.chk
# opt freq b3lyp/cc-pvdz 6d

sto-6g 6D dipole distance nt3

0 1
 H                 -0.05209700   -0.99989900   -0.00008800
 H                  1.28424009   -0.31857444    0.00005581
 H                  1.36226730    1.17939476    0.00014869
 H                 -1.31039729   -0.18339741    0.00017865
 H                 -1.23232534    1.31456947    0.00002585
 H                  0.10399044    1.99593583   -0.00005804

