%nprocshared=4
%mem=24GB
%chk=H6_ring_opt.chk
# opt freq b3lyp/cc-pVDZ 6D

sto-6g 6D meta_Lowdin trans_dipo nt3

0 1
 H                 -0.13816798    3.14957980   -0.00206663
 H                  0.46183198    3.14961336   -0.00186058
 H                  0.76180640    2.62998360   -0.00134504
 H                 -0.43825789    2.63003680   -0.00163841
 H                 -0.13827189    2.11041356   -0.00134504
 H                  0.46172811    2.11041356   -0.00134504

