%nprocshared=24
%mem=180GB
%chk=C12H14_0.8.chk
#p opt freq b3lyp/cc-pvdz

cc-pVDZ

0 1
 C                  0.00000000    0.00000000    0.00000000
 H                  0.00000000    0.00000000    1.09408841
 H                  0.97094422    0.00000000   -0.49899753
 C                 -0.92096052    0.00000000   -0.55988450
 H                 -0.87822104    0.00000000   -1.65586359
 C                 -2.24219792   -0.00000000    0.03124708
 H                 -2.29648631   -0.00000000    1.12688794
 C                 -3.16823549    0.00000000   -0.54029776
 H                 -3.10853836    0.00000000   -1.63590699
 C                 -4.48422936   -0.00000000    0.03924611
 H                 -4.54641965   -0.00000000    1.13445765
 C                 -5.41100933    0.00000000   -0.53640159
 H                 -5.34794033    0.00000000   -1.63165514
 C                 -6.72590283   -0.00000000    0.04073777
 H                 -6.78895998   -0.00000000    1.13599409
 C                 -7.65269901    0.00000000   -0.53488294
 H                 -7.59055874    0.00000000   -1.63009579
 C                 -8.96866072   -0.00000000    0.04473522
 H                 -9.02828308   -0.00000000    1.14035040
 C                 -9.89474600    0.00000000   -0.52673101
 H                 -9.84056849    0.00000000   -1.62237721
 C                -11.21591973   -0.00000000    0.06454409
 H                -11.25852532   -0.00000000    1.16052904
 C                -12.13695151    0.00000000   -0.49522086
 H                -12.13710790    0.00000000   -1.58930860
 H                -13.10782655   -0.00000000    0.00391254

