%nprocshared=24
%mem=180GB
%chk=C12H14_4.chk
#p opt freq b3lyp/cc-pvdz

cc-pVDZ

0 1
 C                  0.00000000    0.00000000    0.00000000
 H                  0.00000000    0.00000000    1.09408841
 H                  0.97094422    0.00000000   -0.49899753
 C                 -4.60480262    0.00000000   -2.79942250
 H                 -4.56206314    0.00000000   -3.89540159
 C                 -5.92604001    0.00000000   -2.20829092
 H                 -5.98032841    0.00000000   -1.11265005
 C                -10.55622789    0.00000000   -5.06601514
 H                -10.49653076    0.00000000   -6.16162437
 C                -11.87222176    0.00000000   -4.48647127
 H                -11.93441205    0.00000000   -3.39125973
 C                -16.50612160    0.00000000   -7.36470977
 H                -16.44305261    0.00000000   -8.45996332
 C                -17.82101511    0.00000000   -6.78757041
 H                -17.88407226    0.00000000   -5.69231409
 C                -22.45499603    0.00000000   -9.66567398
 H                -22.39285576    0.00000000  -10.76088682
 C                -23.77095774    0.00000000   -9.08605582
 H                -23.83058010    0.00000000   -7.99044063
 C                -28.40138412    0.00000000  -11.94338694
 H                -28.34720662    0.00000000  -13.03903315
 C                -29.72255786    0.00000000  -11.35211184
 H                -29.76516344    0.00000000  -10.25612689
 C                -34.32771676    0.00000000  -14.15093658
 H                -34.32787315    0.00000000  -15.24502433
 H                -35.29859181    0.00000000  -13.65180318

