%nprocshared=24
%mem=180GB
%chk=C12H14_3.chk
#p opt freq b3lyp/cc-pvdz

cc-pVDZ

0 1
 C                  0.00000000    0.00000000    0.00000000
 H                  0.00000000    0.00000000    1.09408841
 H                  0.97094422    0.00000000   -0.49899753
 C                 -3.45360197    0.00000000   -2.09956687
 H                 -3.41086248    0.00000000   -3.19554596
 C                 -4.77483936    0.00000000   -1.50843529
 H                 -4.82912775    0.00000000   -0.41279443
 C                 -8.24748027    0.00000000   -3.65172846
 H                 -8.18778313    0.00000000   -4.74733769
 C                 -9.56347413    0.00000000   -3.07218459
 H                 -9.62566443    0.00000000   -1.97697305
 C                -13.03889902    0.00000000   -5.23086347
 H                -12.97583002    0.00000000   -6.32611701
 C                -14.35379252    0.00000000   -4.65372411
 H                -14.41684967    0.00000000   -3.55846778
 C                -17.82927822    0.00000000   -6.81230178
 H                -17.76713794    0.00000000   -7.90751463
 C                -19.14523992    0.00000000   -6.23268362
 H                -19.20486229    0.00000000   -5.13706844
 C                -22.61805971    0.00000000   -8.37568196
 H                -22.56388221    0.00000000   -9.47132817
 C                -23.93923345    0.00000000   -7.78440686
 H                -23.98183903    0.00000000   -6.68842191
 C                -27.39310263    0.00000000   -9.88352541
 H                -27.39325901    0.00000000  -10.97761316
 H                -28.36397767    0.00000000   -9.38439202

