%nprocshared=24
%mem=180GB
%chk=C12H14.chk
#p opt freq b3lyp/cc-pvdz

cc-pVDZ

0 1
 C                  0.00000000    0.00000000    0.00000000
 H                  0.00000000    0.00000000    1.09408841
 H                  0.97094422    0.00000000   -0.49899753
 C                 -1.15120066    0.00000000   -0.69985562
 H                 -1.10846117    0.00000000   -1.79583471
 C                 -2.47243805    0.00000000   -0.10872405
 H                 -2.52672644   -0.00000000    0.98691682
 C                 -3.62998502    0.00000000   -0.82315510
 H                 -3.57028788    0.00000000   -1.91876433
 C                 -4.94597888    0.00000000   -0.24361123
 H                 -5.00816918   -0.00000000    0.85160031
 C                 -6.10445384    0.00000000   -0.96317085
 H                 -6.04138485    0.00000000   -2.05842440
 C                 -7.41934735    0.00000000   -0.38603150
 H                 -7.48240450   -0.00000000    0.70922483
 C                 -8.57784258    0.00000000   -1.10555739
 H                 -8.51570231    0.00000000   -2.20077023
 C                 -9.89380429   -0.00000000   -0.52593923
 H                 -9.95342665   -0.00000000    0.56967596
 C                -11.05141088    0.00000000   -1.24027201
 H                -10.99723338    0.00000000   -2.33591821
 C                -12.37258462   -0.00000000   -0.64899691
 H                -12.41519020   -0.00000000    0.44698805
 C                -13.52387435    0.00000000   -1.34870309
 H                -13.52403073    0.00000000   -2.44279084
 H                -14.49474939    0.00000000   -0.84956969

