%nprocshared=8
%mem=30GB
%chk=benzene.chk
# opt freq b3lyp/6-31G

6-31G

0 1
 C                 -1.33191000   -0.42799000    0.00000200
 C                 -0.29519100   -1.36744900    0.00009800
 C                  1.03659000   -0.93946500   -0.00007700
 C                  1.33187400    0.42810000    0.00001400
 C                  0.29530400    1.36742200    0.00007600
 C                 -1.03666600    0.93938400   -0.00007700
 H                 -2.37202200   -0.76235000   -0.00006800
 H                 -0.52591200   -2.43535200    0.00006800
 H                  1.84624400   -1.67300100   -0.00018000
 H                  2.37206500    0.76219300   -0.00000500
 H                  0.52577100    2.43537200    0.00003500
 H                 -1.84614600    1.67312500   -0.00007400

