%nprocshared=8
%mem=30GB
%chk=benzene.chk
# opt freq b3lyp/6-31g

6-31G

0 1
 C                  0.00000000    0.00000000    0.00000000
 C                  0.00000000    0.00000000    1.40059917
 C                  1.21287589    0.00000000    2.10085291
 C                  2.42584240   -0.00016101    1.40054679
 C                  2.42584242   -0.00022900    0.00003528
 C                  1.21289083   -0.00008900   -0.70026083
 H                 -0.84614314    0.00006202   -0.48845893
 H                 -0.84614571    0.00009600    1.88905363
 H                  1.21293956    0.00004657    3.07786383
 H                  3.27192333   -0.00020142    1.88911346
 H                  3.27192714   -0.00030880   -0.48852482
 H                  1.21294823   -0.00010498   -1.67727175

