%nprocshared=8
%mem=30GB
%chk=benzene.chk
# opt freq b3lyp/6-31g

6-31G

0 1
 C                 -1.40046476   -0.01222167    0.00000000
 C                 -0.68964810    1.21894889   -0.00000000
 C                  0.68964810    1.21894889    0.00000000
 C                  1.40046476   -0.01222167   -0.00000000
 C                  0.71081666   -1.20672722    0.00000000
 C                 -0.71081666   -1.20672722    0.00000000
 H                 -2.48599112   -0.02169494    0.00000000
 H                 -1.22420719    2.16377893   -0.00000000
 H                  1.22420719    2.16377893    0.00000000
 H                  2.48599112   -0.02169494   -0.00000000
 H                  1.26178392   -2.14208399    0.00000000
 H                 -1.26178392   -2.14208399    0.00000000

