%nprocshared=8
%mem=30GB
%chk=benzene.chk
# opt freq b3lyp/6-31g

6-31G

0 1
 C                  0.00000000    0.00000000    0.00000000
 C                  0.00000000    0.00000000    1.40059917
 C                  1.21287589    0.00000000    2.10085291
 C                  2.42584240   -0.00016101    1.40054679
 C                  2.42584242   -0.00022900    0.00003528
 C                  1.21289083   -0.00008900   -0.70026083
 H                 -0.94015904    0.00006891   -0.54273215
 H                 -0.94016190    0.00010666    1.94332635
 H                  1.21294663    0.00005175    3.18642059
 H                  3.36593233   -0.00020591    1.94339865
 H                  3.36593656   -0.00031767   -0.54280927
 H                  1.21295461   -0.00010676   -1.78582852

