%nprocshared=8
%mem=30GB
%chk=benzene.chk
# opt freq b3lyp/6-31g

6-31G

0 1
 C                 -1.40039810   -0.01833221    0.00000000
 C                 -0.68432289    1.22194644   -0.00000000
 C                  0.68432289    1.22194644    0.00000000
 C                  1.40039810   -0.01833221   -0.00000000
 C                  0.71607521   -1.20361422    0.00000000
 C                 -0.71607521   -1.20361422    0.00000000
 H                 -2.48587279   -0.03254187    0.00000000
 H                 -1.21475431    2.16909992   -0.00000000
 H                  1.21475431    2.16909992    0.00000000
 H                  2.48587279   -0.03254187   -0.00000000
 H                  1.27111848   -2.13655805    0.00000000
 H                 -1.27111848   -2.13655805    0.00000000

