%nprocshared=8
%mem=30GB
%chk=benzene.chk
# opt freq b3lyp/6-31g

6-31G

0 1
 C                 -0.68964810    1.21894889    0.00000000
 C                  0.68964810    1.21894889   -0.00000000
 C                  1.40046475   -0.01222167    0.00000000
 C                  0.71081665   -1.20672722    0.00000000
 C                 -0.71081665   -1.20672722    0.00000000
 C                 -1.40046475   -0.01222167    0.00000000
 H                 -1.22420722    2.16377891    0.00000000
 H                  1.22420722    2.16377891   -0.00000000
 H                  2.48599111   -0.02169491    0.00000000
 H                  1.26178390   -2.14208400    0.00000000
 H                 -1.26178390   -2.14208400    0.00000000
 H                 -2.48599111   -0.02169491    0.00000000

