%nprocshared=8
%mem=30GB
%chk=benzene.chk
# opt freq b3lyp/6-31g

6-31G

0 1
 C                 -0.66826947    1.23079925    0.00000000
 C                  0.66826947    1.23079925   -0.00000000
 C                  1.40003816   -0.03666129    0.00000000
 C                  0.73176868   -1.19413796    0.00000000
 C                 -0.73176868   -1.19413796    0.00000000
 C                 -1.40003816   -0.03666129    0.00000000
 H                 -1.18625761    2.18481472    0.00000000
 H                  1.18625761    2.18481472   -0.00000000
 H                  2.48523386   -0.06507813    0.00000000
 H                  1.29897624   -2.11973659    0.00000000
 H                 -1.29897624   -2.11973659    0.00000000
 H                 -2.48523386   -0.06507813    0.00000000

