%nprocshared=8
%mem=30GB
%chk=benzene.chk
# opt freq b3lyp/6-31g

6-31G

0 1
 C              
 C                  1            B1
 C                  2            B2    1            A1
 C                  3            B3    2            A2    1            D1    0
 C                  4            B4    3            A3    2            D2    0
 C                  1            B5    2            A4    3            D3    0
 H                  1            B6    6            A5    5            D4    0
 H                  2            B6    1            A6    6            D5    0
 H                  3            B6    2            A7    1            D6    0
 H                  4            B6    3            A8    2            D7    0
 H                  5            B6    4            A9    3            D8    0
 H                  6            B6    1           A10    2            D9    0

   B1             1.40059917
   B2             1.40050820
   B3             1.40061288
   B4             1.40051151
   B5             1.40052469
   B6             1.08556769
   A1           119.99998290
   A2           120.00003196
   A3           119.99998584
   A4           119.99992852
   A5           120.00322201
   A6           119.99654672
   A7           120.00371682
   A8           119.99587028
   A9           120.00370102
   A10          120.00329478
   D1            -0.00760530
   D2             0.00439316
   D3             0.00420419
   D4          -179.99758642
   D5           179.99770384
   D6           179.99684613
   D7          -179.99726284
   D8           179.99779815
   D9           179.99891793

