%nprocshared=8
%mem=30GB
%chk=benzene.chk
# opt freq b3lyp/6-31g

6-31G

0 1
 C                  0.00000000    0.00000000    0.00000000
 C                  0.00000000    0.00000000    1.26053925
 C                  1.09165920    0.00000000    1.89080855
 C                  2.18331838   -0.00014490    1.26053922
 C                  2.18331840   -0.00020611   -0.00000003
 C                  1.09165980   -0.00008010   -0.63026826
 H                 -0.94015904    0.00006891   -0.54273215
 H                 -0.94016387    0.00010666    1.80326757
 H                  1.09172995    0.00005175    2.97637603
 H                  3.12340844   -0.00018981    1.80339115
 H                  3.12341508   -0.00029477   -0.54284606
 H                  1.09172358   -0.00009786   -1.71583666

