%nprocshared=8
%mem=30GB
%chk=benzene.chk
# opt freq b3lyp/6-31g

6-31G

0 1
 C                  0.00000000    0.00000000    0.00000000
 C                  0.00000000    0.00000000    2.80119834
 C                  2.42590934    0.00000000    4.20179679
 C                  4.85181862   -0.00032201    2.80119826
 C                  4.85181866   -0.00045801   -0.00000007
 C                  2.42591066   -0.00017801   -1.40059614
 H                 -0.94015904    0.00006891   -0.54273215
 H                 -0.94016387    0.00010666    3.34392666
 H                  2.42598009    0.00005175    5.28736426
 H                  5.79190868   -0.00036691    3.34405019
 H                  5.79191534   -0.00054667   -0.54284610
 H                  2.42597444   -0.00019577   -2.48616454

