%nprocshared=8
%mem=30GB
%chk=benzene.chk
# opt freq b3lyp/6-31g

6-31G

0 1
 C                  0.00000000    0.00000000    0.00000000
 C                  0.00000000    0.00000000    2.10089875
 C                  1.81943201    0.00000000    3.15134759
 C                  3.63886396   -0.00024151    2.10089870
 C                  3.63886399   -0.00034351   -0.00000005
 C                  1.81943300   -0.00013350   -1.05044711
 H                 -0.94015904    0.00006891   -0.54273215
 H                 -0.94016387    0.00010666    2.64362707
 H                  1.81950275    0.00005175    4.23691507
 H                  4.57895402   -0.00028641    2.64375063
 H                  4.57896068   -0.00043217   -0.54284608
 H                  1.81949678   -0.00015126   -2.13601551

