%nprocshared=8
%mem=30GB
%chk=C6H6_opt.chk
# opt freq b3lyp/cc-pVDZ

cc-pVDZ

0 1
 C                  0.32160195   -1.11650484    0.00000000
 C                  1.71676195   -1.11650484    0.00000000
 C                  2.41429995    0.09124616    0.00000000
 C                  1.71664595    1.29975516   -0.00119900
 C                  0.32182095    1.29967716   -0.00167800
 C                 -0.37578005    0.09147116   -0.00068200
 H                 -0.22815705   -2.06882184    0.00045000
 H                  2.26626995   -2.06901784    0.00131500
 H                  3.51397995    0.09132616    0.00063400
 H                  2.26684595    2.25189816   -0.00125800
 H                 -0.22830105    2.25195816   -0.00263100
 H                 -1.47538405    0.09165416   -0.00086200



