%nprocshared=4
%mem=30GB
%chk=chrysene_opt.chk
# opt freq b3lyp/6-31G

6-31G

0 1
 C                    0.00000000   -0.77000000    0.00000000
 C                    0.00000000    0.77000000    0.00000000
 C                   -1.33400000   -1.54000000    0.00000000
 C                    1.33400000   -1.54000000    0.00000000
 C                   -1.33400000    1.54000000    0.00000000
 C                    1.33400000    1.54000000    0.00000000
 C                   -2.66700000   -0.77000000    0.00000000
 C                    2.66700000   -0.77000000    0.00000000
 C                   -2.66700000    0.77000000    0.00000000
 C                    2.66700000    0.77000000    0.00000000
 C                   -4.00100000   -1.54000000    0.00000000
 C                   -4.00100000   -3.08000000    0.00000000
 C                   -2.66800000   -3.85000000    0.00000000
 C                   -1.33400000   -3.08000000    0.00000000
 C                    4.00100000    1.54000000    0.00000000
 C                    4.00100000    3.08000000    0.00000000
 C                    2.66700000    3.85000000    0.00000000
 C                    1.33400000    3.08000000    0.00000000
 H                    1.33400000   -3.08000000    0.00000000
 H                   -1.33400000    3.08000000    0.00000000
 H                    4.00100000   -1.54000000    0.00000000
 H                   -4.00100000    1.54000000    0.00000000
 H                   -5.33500000   -0.77000000    0.00000000
 H                   -5.33500000   -3.85000000    0.00000000
 H                   -2.66800000   -5.39000000    0.00000000
 H                    0.00000000   -3.85000000    0.00000000
 H                    5.33500000    0.77000000    0.00000000
 H                    5.33500000    3.85000000    0.00000000
 H                    2.66700000    5.39000000    0.00000000
 H                    0.00000000    3.85000000    0.00000000




