%nprocshared=4
%mem=30GB
%chk=chrysene.chk
# opt freq b3lyp/6-31g

6-31G

0 1
 C                 -0.50442800   -0.50121000    0.00000000
 C                  0.50442700    0.50121600    0.00000000
 C                 -0.12952800   -1.90763900    0.00000000
 C                 -1.87931600   -0.09531300    0.00000000
 C                  1.87931300    0.09531900    0.00000000
 C                  0.12952700    1.90764600    0.00000000
 C                  1.25745600   -2.26207500    0.00000000
 C                 -2.23958900    1.22408200    0.00000000
 C                  2.23958600   -1.22407800    0.00000000
 C                 -1.25746100    2.26207900    0.00000000
 C                  1.63697400   -3.62973800    0.00000000
 C                  0.68552000   -4.63273800    0.00000000
 C                 -0.68551200   -4.29201100    0.00000000
 C                 -1.08017500   -2.96442900    0.00000000
 C                 -1.63697500    3.62973200    0.00000000
 C                 -0.68551200    4.63273000    0.00000000
 C                  0.68551900    4.29199900    0.00000000
 C                  1.08017400    2.96443200    0.00000000
 H                 -2.65968700   -0.84552300    0.00000000
 H                  2.65968700    0.84553100    0.00000000
 H                 -3.28917900    1.50451200    0.00000000
 H                  3.28917500   -1.50450800    0.00000000
 H                  2.69561600   -3.87438000    0.00000000
 H                  0.98565800   -5.67545400    0.00000000
 H                 -1.43553500   -5.07651700    0.00000000
 H                 -2.13946100   -2.74001200    0.00000000
 H                 -2.69561700    3.87438000    0.00000000
 H                 -0.98565300    5.67545000    0.00000000
 H                  1.43555300    5.07649400    0.00000000
 H                  2.13946100    2.74001700    0.00000000

