%chk=D:\Documents\PyCharmProjects\bccc\examples\polyacene\123.chk
# hf/3-21g geom=connectivity

Title Card Required

0 2
 C                 -3.70839905   -3.12643122   -0.03845066
 C                 -4.42551205   -1.90182222   -0.03841266
 C                 -5.84464605   -1.91115822   -0.03838266
 C                 -2.26934405   -3.08434922   -0.03838566
 C                 -3.71672605   -0.65601722   -0.03819366
 C                 -2.29763805   -0.64669422   -0.03815866
 C                 -1.59852005   -1.90521522   -0.03829666
 C                 -1.62079505    0.57979578   -0.03800166
 H                 -0.52061405    0.59266378   -0.03803366
 C                 -2.33251805    1.77706678   -0.03785066
 C                 -3.72543305    1.77706678   -0.03782366
 C                 -4.43385905    0.56863078   -0.03803166
 C                 -5.87294605    0.52650178   -0.03824166
 C                 -6.54376205   -0.65261622   -0.03839666
 H                 -7.64433005   -0.68067022   -0.03891966
 H                 -6.41125305    1.48684978   -0.03815966
 H                 -1.73118105   -4.04474922   -0.03868166
 H                 -0.49797105   -1.87727022   -0.03858366
 H                 -1.78839305    2.73363378   -0.03787566
 H                 -4.27641105    2.72942778   -0.03780566
 H                 -6.31510670   -2.76365952   -0.03845426
 H                 -4.20083921   -3.96642788   -0.03845066

 1 2 1.5 4 1.5 22 1.5
 2 3 1.5 5 1.5
 3 14 1.5 21 1.5
 4 7 2.0 17 1.0
 5 6 1.5 12 1.5
 6 7 1.5 8 1.5
 7 18 1.0
 8 9 1.0 10 1.5
 9
 10 11 1.5 19 1.0
 11 12 1.5 20 1.0
 12 13 1.5
 13 14 2.0 16 1.0
 14 15 1.0
 15
 16
 17
 18
 19
 20
 21
 22

