%chk=D:\Documents\PyCharmProjects\bccc\examples\polyacene\p4_opt.chk
# hf/3-21g geom=connectivity

NULL

0 2
 C                    0.00000000   -0.77000000    0.00000000
 C                    0.00000000    0.77000000    0.00000000
 C                   -1.33400000   -1.54000000    0.00000000
 C                    1.33400000   -1.54000000    0.00000000
 C                   -1.33400000    1.54000000    0.00000000
 C                    1.33400000    1.54000000    0.00000000
 C                   -2.66700000   -0.77000000    0.00000000
 C                    2.66700000   -0.77000000    0.00000000
 C                   -2.66700000    0.77000000    0.00000000
 C                    2.66700000    0.77000000    0.00000000
 C                    1.33400000   -3.08000000    0.00000000
 C                    2.66700000   -3.85000000    0.00000000
 C                    4.00100000   -3.08000000    0.00000000
 C                    4.00100000   -1.54000000    0.00000000
 C                    5.33500000   -0.77000000    0.00000000
 C                    5.33500000    0.77000000    0.00000000
 C                    4.00100000    1.54000000    0.00000000
 H                   -1.33400000   -3.08000000    0.00000000
 H                   -1.33400000    3.08000000    0.00000000
 H                    1.33400000    3.08000000    0.00000000
 H                   -4.00100000   -1.54000000    0.00000000
 H                   -4.00100000    1.54000000    0.00000000
 H                    2.66700000   -5.39000000    0.00000000
 H                    5.33500000   -3.85000000    0.00000000
 H                    6.66800000   -1.54000000    0.00000000
 H                    6.66800000    1.54000000    0.00000000
 H                    4.00100000    3.08000000    0.00000000
 H                    0.51700000   -4.38600000    0.00000000

 1 2 1.0 3 1.0 4 1.0
 2 5 1.0 6 1.0
 3 7 1.0 18 1.0
 4 8 1.0 11 1.0
 5 9 1.0 19 1.0
 6 10 1.0 20 1.0
 7 9 1.0 21 1.0
 8 14 1.0 10 1.0
 9 22 1.0
 10 17 1.0
 11 12 1.0 28 1.0
 12 13 1.0 23 1.0
 13 14 1.0 24 1.0
 14 15 1.0
 15 16 1.0 25 1.0
 16 17 1.0 26 1.0
 17 27 1.0
 18
 19
 20
 21
 22
 23
 24
 25
 26
 27
 28


