%nprocshared=4
%mem=30GB
%chk=phenanthrene_opt.chk
# opt freq b3lyp/6-31G

6-31G

0 1
 C                 -3.18014757   -5.83154678   -0.00346100
 C                 -1.80025657   -5.83154678   -0.00346100
 C                 -1.08092057   -4.61490278   -0.00346100
 C                 -1.77850957   -3.38300678   -0.00139100
 C                 -3.19249457   -3.41287078   -0.00098200
 C                 -3.87895657   -4.61143978   -0.00246900
 C                  0.35413143   -4.62338578   -0.00514100
 C                 -1.02907757   -2.14631978    0.00008000
 C                  0.38576943   -2.19459478   -0.00173700
 C                  1.05745943   -3.46277078   -0.00482900
 C                  1.13149843   -0.99388378    0.00000000
 H                  2.23053343   -1.05053978   -0.00141800
 C                  0.49288043    0.22929922    0.00368100
 C                 -0.91212757    0.28410522    0.00560300
 C                 -1.65699257   -0.87902178    0.00368600
 H                  0.86371743   -5.59915478   -0.00696600
 H                 -3.73936857   -6.77846178   -0.00431500
 H                 -1.24123757   -6.77948778   -0.00416700
 H                 -3.76187657   -2.47189678    0.00032200
 H                 -4.97905157   -4.61836278   -0.00274600
 H                  2.15827643   -3.46325078   -0.00645800
 H                  1.07348843    1.16326222    0.00514800
 H                 -1.41485257    1.26262922    0.00858400
 H                 -2.75465157   -0.80991678    0.00532300



