%nprocshared=4
%mem=30GB
%chk=phenanthrene.chk
# opt freq b3lyp/6-31g

6-31G

0 1
 C                  3.56853500   -0.29791000    0.00004000
 C                  2.84361600    0.88143300    0.00012300
 C                  1.42595200    0.86916100    0.00006800
 C                  0.73003700   -0.38121200   -0.00001700
 C                  1.50158900   -1.57096700   -0.00014700
 C                  2.88780700   -1.53368800   -0.00012000
 C                  0.68158500    2.09939000    0.00004900
 C                 -0.73003800   -0.38121000    0.00000700
 C                 -1.42595100    0.86916000   -0.00007300
 C                 -0.68158500    2.09938900   -0.00006500
 C                 -2.84361800    0.88143200   -0.00010400
 H                 -3.35456900    1.84022300   -0.00018400
 C                 -3.56853400   -0.29790900   -0.00002100
 C                 -2.88780400   -1.53369000    0.00012100
 C                 -1.50159000   -1.57096900    0.00013700
 H                  1.23499500    3.03403200    0.00011200
 H                  4.65350300   -0.27535300    0.00008600
 H                  3.35456900    1.84022300    0.00021200
 H                  1.00718700   -2.53524200   -0.00032100
 H                  3.45207800   -2.46089800   -0.00024300
 H                 -1.23499500    3.03403200   -0.00013700
 H                 -4.65350300   -0.27535700   -0.00004400
 H                 -3.45208300   -2.46089600    0.00023700
 H                 -1.00717800   -2.53523800    0.00029600

