%nprocshared=4
%mem=30GB
%chk=pyrene.chk
# opt freq b3lyp/6-31g

6-31G

0 1
 C                  3.53199300    0.00000000    0.00037100
 C                  2.83952800   -1.21362700    0.00030900
 C                  1.43219900   -1.23913300    0.00015800
 C                  0.71467800    0.00000000    0.00007100
 C                  1.43219900    1.23913400    0.00013100
 C                  2.83952500    1.21362800    0.00028200
 C                  0.68267700   -2.46925800    0.00009000
 C                 -0.71467800    0.00000000   -0.00007600
 C                 -1.43219700   -1.23913300   -0.00013800
 C                 -0.68267500   -2.46925900   -0.00005200
 C                 -2.83952600   -1.21362800   -0.00028000
 H                 -3.38586900   -2.15235600   -0.00032500
 C                 -3.53199300   -0.00000200   -0.00035800
 C                 -2.83952600    1.21362700   -0.00029900
 C                 -1.43220000    1.23913300   -0.00015900
 C                 -0.68267700    2.46925900   -0.00009500
 C                  0.68267500    2.46925900    0.00004200
 H                  1.23273900    3.40590600    0.00008100
 H                 -1.23274200    3.40590600   -0.00015700
 H                  1.23274100   -3.40590600    0.00015400
 H                  4.61736600    0.00000200    0.00049100
 H                  3.38587100   -2.15235400    0.00038100
 H                  3.38587300    2.15235200    0.00032900
 H                 -1.23274000   -3.40590500   -0.00010300
 H                 -4.61736600    0.00000000   -0.00046800
 H                 -3.38587300    2.15235200   -0.00036100

