%nprocshared=4
%mem=30GB
%chk=tetracene_opt.chk
# opt freq b3lyp/6-31G

6-31G

0 1
 C                     0.67400000    0.37300000   -0.01200000
 C                    -0.67400000   -0.37300000    0.01200000
 C                     1.97300000   -0.37200000    0.34800000
 C                    -1.97300000    0.37200000   -0.34800000
 C                     2.07000000    2.60900000   -0.41900000
 C                     3.32000000    0.37300000    0.32400000
 C                    -1.92400000    1.86300000   -0.73100000
 C                     3.36800000    1.86400000   -0.06000000
 C                     4.62700000   -0.46400000    0.13200000
 C                     5.98500000    0.26200000    0.13200000
 C                     6.03500000    1.80100000    0.13200000
 C                     4.72700000    2.61400000    0.13200000
 C                     0.72200000    1.86300000   -0.39500000
 C                    -0.57700000    2.60900000   -0.75500000
 C                     7.29300000   -0.55100000    0.13200000
 C                     8.65100000    0.17500000    0.13200000
 C                     8.70100000    1.71400000    0.13200000
 C                     7.39300000    2.52700000    0.13200000
 H                    -0.70800000   -1.42800000    0.28300000
 H                     1.93800000   -1.42800000    0.61900000
 H                    -2.92600000   -0.15500000   -0.33100000
 H                     2.10400000    3.66400000   -0.69100000
 H                    -2.84300000    2.39100000   -0.98600000
 H                     4.59200000   -1.54600000   -0.00100000
 H                     4.76200000    3.69500000    0.26500000
 H                    -0.54200000    3.66400000   -1.02700000
 H                     7.25700000   -1.64100000    0.13200000
 H                     9.57700000   -0.40100000    0.13200000
 H                     9.66200000    2.22800000    0.13200000
 H                     7.42900000    3.61700000    0.13200000



