%nprocshared=4
%mem=30GB
%chk=C3H6_4.chk
# opt freq b3lyp/cc-pvdz

cc-pVDZ

0 1
 C                  0.00000000    0.00000000    0.00000000
 C                  0.00000000    0.00000000    1.51082147
 C                  1.30840952    0.00000000    0.75542623
 H                 -1.18688036   -3.67020399   -2.05566390
 H                 -1.18688036    3.67020399   -2.05566390
 H                 -1.18678912   -3.67019924    3.56654653
 H                 -1.18678912    3.67019924    3.56654653
 H                  3.68212362    3.67019315    0.75559756
 H                  3.68212362   -3.67019315    0.75559756

