%nprocshared=4
%mem=30GB
%chk=C3H6_0.8.chk
# opt freq b3lyp/cc-pvdz

cc-pVDZ

0 1
 C                  0.00000000    0.00000000    0.00000000
 C                  0.00000000    0.00000000    1.51082147
 C                  1.30840952    0.00000000    0.75542623
 H                 -0.23737607   -0.73404080   -0.41113278
 H                 -0.23737607    0.73404080   -0.41113278
 H                 -0.23735782   -0.73403985    1.92196648
 H                 -0.23735782    0.73403985    1.92196648
 H                  1.78315234    0.73403863    0.75546050
 H                  1.78315234   -0.73403863    0.75546050

