%nprocshared=4
%mem=30GB
%chk=C3H6_1.5.chk
# opt freq b3lyp/cc-pvdz

cc-pVDZ

0 1
 C                  0.00000000    0.00000000    0.00000000
 C                  0.00000000    0.00000000    1.51082147
 C                  1.30840952    0.00000000    0.75542623
 H                 -0.44508014   -1.37632650   -0.77087396
 H                 -0.44508014    1.37632650   -0.77087396
 H                 -0.44504592   -1.37632472    2.28171837
 H                 -0.44504592    1.37632472    2.28171837
 H                  2.19855231    1.37632243    0.75549048
 H                  2.19855231   -1.37632243    0.75549048

