%chk=D:\Documents\PyCharmProjects\bccc\examples\H2O-4\H2O-4.chk
# hf/3-21g geom=connectivity

Title Card Required

0 1
 O              
 H                  1            B1
 H                  1            B1    2            A1
 O                  1            B3    2            A2    3            D1    0
 H                  4            B1    1            A3    2            D2    0
 H                  4            B1    1            A4    2            D3    0
 O                  4            B3    5            A5    1            D4    0
 H                  7            B1    4            A6    5            D5    0
 H                  7            B1    4            A7    5            D6    0
 O                  7            B3    8            A8    4            D7    0
 H                 10            B1    7            A9    8            D8    0
 H                 10            B1    7           A10    8            D9    0

   B1             0.97551
   B3            50.00000000
   A1           109.50000007
   A2            87.15166337
   A3            92.84833663
   A4            91.41672438
   A5            87.15166337
   A6            89.19006797
   A7            92.30196582
   A8            90.80993203
   A9            85.54764562
   A10           92.90639364
   D1           -87.48507592
   D2             0.00000000
   D3           109.60613574
   D4           180.00000000
   D5             0.00640007
   D6           109.49027494
   D7           180.00000000
   D8            -0.02047298
   D9           109.32694112

 1 2 1.0 3 1.0
 2
 3
 4 5 1.0 6 1.0
 5
 6
 7 8 1.0 9 1.0
 8
 9
 10 11 1.0 12 1.0
 11
 12

