%chk=H2O-4_0.7.chk
#

cc-pVDZ

0 1
 O                  0.00000000    0.00000000    0.00000000
 H                  0.00000000    0.00000000    0.73163250
 H                  0.68966715    0.00000000   -0.24422395
 O                  2.19127011   49.89012933    2.48461892
 H                  2.19127011   49.89012933    3.21625142
 H                  2.88093726   49.89012933    2.24039498
 O                  4.38254021   99.78025865    4.96923785
 H                  4.38057346   99.73361788    5.69937954
 H                  5.07284818   99.79144995    4.72708959
 O                  6.57381032  149.67038798    7.45385677
 H                  6.56955170  149.57751204    8.17955784
 H                  7.26478608  149.68915830    7.21409378

