%chk=H2O-4.chk
#

cc-pVDZ

0 1
 O                  0.00000000    0.00000000    0.00000000
 H                  0.00000000    0.00000000    0.97551000
 H                  0.91955620    0.00000000   -0.32563193
 O                  2.19127011   49.89012933    2.48461892
 H                  2.19127011   49.89012933    3.46012892
 H                  3.11082631   49.89012933    2.15898699
 O                  4.38254021   99.78025865    4.96923785
 H                  4.37991787   99.71807096    5.94276010
 H                  5.30295084   99.79518038    4.64637350
 O                  6.57381032  149.67038798    7.45385677
 H                  6.56813216  149.54655339    8.42145819
 H                  7.49511133  149.69541508    7.13417278

