%chk=H2O.chk
#

cc-pVDZ

0 1
 O                  0.00000000    0.00000000    0.00000000
 H                  0.00000000    0.00000000    0.97551000
 H                  0.91955620    0.00000000   -0.32563193

