%chk=H2O_2.chk
#

cc-pVDZ

0 1
 O                  0.00000000    0.00000000    0.00000000
 H                  0.00000000    0.00000000    1.95102000
 H                  1.83911240    0.00000000   -0.65126386

