%nprocshared=24
%mem=100GB
%chk=C60-opt.chk
# opt(z-matrix) freq b3lyp/cc-pVDZ

Title Card Required

0 1
 C                 -1.34937240    0.79497907    0.00000000
 C                  0.11451660    0.79497907    0.00000000
 C                  0.80680560    1.99417707    0.00000000
 C                  0.07482360    3.26193507   -0.00001900
 C                 -1.30984440    3.26190307    0.00000500
 C                 -2.04175040    1.99410807    0.00002100
 C                 -1.80175240   -0.31140593   -0.84514300
 C                 -0.61746640   -0.99515793   -1.36751300
 C                  0.56689360   -0.31136593   -0.84518700
 C                  1.68706460   -0.15866493   -1.64467700
 C                  1.99106060    2.15560007   -0.84525000
 C                  0.80670960    4.20685907   -0.84526500
 C                  0.11430660    5.10063707   -1.64470200
 C                 -1.34958640    5.10061407   -1.64464800
 C                 -2.04185240    4.20681007   -0.84515400
 C                 -3.22617440    3.52300307   -1.36745400
 C                 -3.22611240    2.15548607   -0.84510200
 C                 -3.65401840    1.10898607   -1.64450700
 C                 -2.92202140   -0.15877293   -1.64452900
 C                 -0.61751840   -1.48926293   -2.66101900
 C                 -1.80184440   -1.32789493   -3.50614400
 C                 -2.92205840   -0.68113693   -3.01203600
 C                 -3.65407240    0.26377107   -3.85720300
 C                 -4.10644240    1.37012307   -3.01201000
 C                 -4.10649440    2.66364107   -3.50610800
 C                 -3.65412840    3.77001607   -2.66095700
 C                 -2.92224340    4.71497907   -3.50619100
 C                 -1.80201640    5.36178207   -3.01217300
 C                  1.99099960    3.52313407   -1.36763700
 C                  0.56656360    4.34531907   -5.67325800
 C                  1.68683360    4.19269707   -4.87388600
 C                  2.41880660    2.92494607   -4.87388000
 C                  1.99090460    1.87845107   -5.67330600
 C                  0.80657460    2.03983007   -6.51843700
 C                 -1.34970840    3.23893507   -6.51837200
 C                 -1.80207740    4.34529407   -5.67318700
 C                 -0.61776840    5.02909507   -5.15088600
 C                 -0.61773140    5.52319307   -3.85737800
 C                  0.56662760    5.36179807   -3.01221300
 C                  1.68685360    4.71506107   -3.50632700
 C                  2.87120160    2.66379607   -3.50637300
 C                  2.87125860    1.37030607   -3.01226300
 C                  2.41886560    0.26390507   -3.85740200
 C                  1.99093760    0.51092607   -5.15092200
 C                  0.80665360   -0.17286993   -5.67323000
 C                  0.07465160    0.77203007   -6.51838300
 C                 -1.31001840    0.77201407   -6.51832700
 C                 -2.04200540    2.03976407   -6.51833200
 C                 -2.92227840    4.19260107   -4.87370400
 C                 -3.65417740    2.92480807   -4.87365800
 C                 -3.22629240    1.87833207   -5.67310300
 C                 -3.22623740    0.51080407   -5.15073900
 C                 -2.04191040   -0.17293893   -5.67312600
 C                 -1.34952240   -1.06671793   -4.87371500
 C                  0.11437060   -1.06669193   -4.87374700
 C                  0.56678560   -1.32782393   -3.50626500
 C                  1.68700660   -0.68102493   -3.01222400
 C                  2.41882860    3.77017807   -2.66118400
 C                  2.41894360    1.10913607   -1.64469900
 C                  0.11419960    3.23897307   -6.51840400

