%chk=H12_0.7.chk
#

sto-6g 6D meta_Lowdin trans_dipo

0 1
 H                  0.0    0.0    -4.2
 H                  0.0    0.0    -3.5
 H                  0.0    0.0    -2.8
 H                  0.0    0.0    -2.1
 H                  0.0    0.0    -1.4
 H                  0.0    0.0    -0.7
 H                  0.0    0.0    -0.0
 H                  0.0    0.0    0.7
 H                  0.0    0.0    1.4
 H                  0.0    0.0    2.1
 H                  0.0    0.0    2.8
 H                  0.0    0.0    3.5

