%chk=H80_4.chk
#

sto-6g 6D meta_Lowdin trans_dipo

0 1
 H                 0.0  0.0   -160.0
 H                 0.0  0.0   -156.0
 H                 0.0  0.0   -152.0
 H                 0.0  0.0   -148.0
 H                 0.0  0.0   -144.0
 H                 0.0  0.0   -140.0
 H                 0.0  0.0   -136.0
 H                 0.0  0.0   -132.0
 H                 0.0  0.0   -128.0
 H                 0.0  0.0   -124.0
 H                 0.0  0.0   -120.0
 H                 0.0  0.0   -116.0
 H                 0.0  0.0   -112.0
 H                 0.0  0.0   -108.0
 H                 0.0  0.0   -104.0
 H                 0.0  0.0   -100.0
 H                 0.0  0.0   -96.0
 H                 0.0  0.0   -92.0
 H                 0.0  0.0   -88.0
 H                 0.0  0.0   -84.0
 H                 0.0  0.0   -80.0
 H                 0.0  0.0   -76.0
 H                 0.0  0.0   -72.0
 H                 0.0  0.0   -68.0
 H                 0.0  0.0   -64.0
 H                 0.0  0.0   -60.0
 H                 0.0  0.0   -56.0
 H                 0.0  0.0   -52.0
 H                 0.0  0.0   -48.0
 H                 0.0  0.0   -44.0
 H                 0.0  0.0   -40.0
 H                 0.0  0.0   -36.0
 H                 0.0  0.0   -32.0
 H                 0.0  0.0   -28.0
 H                 0.0  0.0   -24.0
 H                 0.0  0.0   -20.0
 H                 0.0  0.0   -16.0
 H                 0.0  0.0   -12.0
 H                 0.0  0.0   -8.0
 H                 0.0  0.0   -4.0
 H                 0.0  0.0   0.0
 H                 0.0  0.0   4.0
 H                 0.0  0.0   8.0
 H                 0.0  0.0   12.0
 H                 0.0  0.0   16.0
 H                 0.0  0.0   20.0
 H                 0.0  0.0   24.0
 H                 0.0  0.0   28.0
 H                 0.0  0.0   32.0
 H                 0.0  0.0   36.0
 H                 0.0  0.0   40.0
 H                 0.0  0.0   44.0
 H                 0.0  0.0   48.0
 H                 0.0  0.0   52.0
 H                 0.0  0.0   56.0
 H                 0.0  0.0   60.0
 H                 0.0  0.0   64.0
 H                 0.0  0.0   68.0
 H                 0.0  0.0   72.0
 H                 0.0  0.0   76.0
 H                 0.0  0.0   80.0
 H                 0.0  0.0   84.0
 H                 0.0  0.0   88.0
 H                 0.0  0.0   92.0
 H                 0.0  0.0   96.0
 H                 0.0  0.0   100.0
 H                 0.0  0.0   104.0
 H                 0.0  0.0   108.0
 H                 0.0  0.0   112.0
 H                 0.0  0.0   116.0
 H                 0.0  0.0   120.0
 H                 0.0  0.0   124.0
 H                 0.0  0.0   128.0
 H                 0.0  0.0   132.0
 H                 0.0  0.0   136.0
 H                 0.0  0.0   140.0
 H                 0.0  0.0   144.0
 H                 0.0  0.0   148.0
 H                 0.0  0.0   152.0
 H                 0.0  0.0   156.0

