%chk=H80_2.chk
#

sto-6g 6D meta_Lowdin trans_dipo

0 1
 H                 0.0  0.0   -80.0
 H                 0.0  0.0   -78.0
 H                 0.0  0.0   -76.0
 H                 0.0  0.0   -74.0
 H                 0.0  0.0   -72.0
 H                 0.0  0.0   -70.0
 H                 0.0  0.0   -68.0
 H                 0.0  0.0   -66.0
 H                 0.0  0.0   -64.0
 H                 0.0  0.0   -62.0
 H                 0.0  0.0   -60.0
 H                 0.0  0.0   -58.0
 H                 0.0  0.0   -56.0
 H                 0.0  0.0   -54.0
 H                 0.0  0.0   -52.0
 H                 0.0  0.0   -50.0
 H                 0.0  0.0   -48.0
 H                 0.0  0.0   -46.0
 H                 0.0  0.0   -44.0
 H                 0.0  0.0   -42.0
 H                 0.0  0.0   -40.0
 H                 0.0  0.0   -38.0
 H                 0.0  0.0   -36.0
 H                 0.0  0.0   -34.0
 H                 0.0  0.0   -32.0
 H                 0.0  0.0   -30.0
 H                 0.0  0.0   -28.0
 H                 0.0  0.0   -26.0
 H                 0.0  0.0   -24.0
 H                 0.0  0.0   -22.0
 H                 0.0  0.0   -20.0
 H                 0.0  0.0   -18.0
 H                 0.0  0.0   -16.0
 H                 0.0  0.0   -14.0
 H                 0.0  0.0   -12.0
 H                 0.0  0.0   -10.0
 H                 0.0  0.0   -8.0
 H                 0.0  0.0   -6.0
 H                 0.0  0.0   -4.0
 H                 0.0  0.0   -2.0
 H                 0.0  0.0   0.0
 H                 0.0  0.0   2.0
 H                 0.0  0.0   4.0
 H                 0.0  0.0   6.0
 H                 0.0  0.0   8.0
 H                 0.0  0.0   10.0
 H                 0.0  0.0   12.0
 H                 0.0  0.0   14.0
 H                 0.0  0.0   16.0
 H                 0.0  0.0   18.0
 H                 0.0  0.0   20.0
 H                 0.0  0.0   22.0
 H                 0.0  0.0   24.0
 H                 0.0  0.0   26.0
 H                 0.0  0.0   28.0
 H                 0.0  0.0   30.0
 H                 0.0  0.0   32.0
 H                 0.0  0.0   34.0
 H                 0.0  0.0   36.0
 H                 0.0  0.0   38.0
 H                 0.0  0.0   40.0
 H                 0.0  0.0   42.0
 H                 0.0  0.0   44.0
 H                 0.0  0.0   46.0
 H                 0.0  0.0   48.0
 H                 0.0  0.0   50.0
 H                 0.0  0.0   52.0
 H                 0.0  0.0   54.0
 H                 0.0  0.0   56.0
 H                 0.0  0.0   58.0
 H                 0.0  0.0   60.0
 H                 0.0  0.0   62.0
 H                 0.0  0.0   64.0
 H                 0.0  0.0   66.0
 H                 0.0  0.0   68.0
 H                 0.0  0.0   70.0
 H                 0.0  0.0   72.0
 H                 0.0  0.0   74.0
 H                 0.0  0.0   76.0
 H                 0.0  0.0   78.0

