%nprocshared=24
%mem=300GB
%chk=C14H30.chk
# opt freq b3lyp/cc-pvdz

6-31g

0 1
 C                  0.00000000    0.00000000    0.00000000
 H                  0.00000000    0.00000000    1.10354786
 H                  1.05349029    0.00000000   -0.32859752
 H                 -0.45270609   -0.94799072   -0.33301111
 C                 -0.75463655    1.21019850   -0.55511397
 H                 -0.76776106    1.16220790   -1.65984975
 H                 -1.81316901    1.16220888   -0.23869187
 C                 -0.15837246    2.55198904   -0.11650151
 H                  0.90118591    2.60027262   -0.43266053
 H                 -0.14469283    2.60027449    0.98913547
 C                 -0.90692675    3.77007735   -0.66714136
 H                 -1.96622889    3.72091555   -0.35097089
 H                 -0.92052190    3.72091420   -1.77253694
 C                 -0.31068089    5.11175853   -0.22854232
 H                  0.74856147    5.16120124   -0.54473193
 H                 -0.29712321    5.16120250    0.87680212
 C                 -1.05977841    6.32963680   -0.77958177
 H                 -2.11903163    6.28025902   -0.46342248
 H                 -1.07336748    6.28025784   -1.88492694
 C                 -0.46362647    7.67141225   -0.34105181
 H                  0.59562061    7.72082074   -0.65721063
 H                 -0.45003858    7.72082200    0.76428877
 C                 -1.21274004    8.88931188   -0.89210306
 H                 -2.27198691    8.83989118   -0.57594780
 H                 -1.22633186    8.83988992   -1.99744157
 C                 -0.61662262   10.23114184   -0.45359850
 H                  0.44262460   10.28052984   -0.76974605
 H                 -0.60302473   10.28053101    0.65173827
 C                 -1.36568729   11.44911700   -1.00461379
 H                 -2.42492630   11.39962681   -0.68845398
 H                 -1.37927184   11.39962555   -2.10994695
 C                 -0.76959092   12.79093565   -0.56612471
 H                  0.28971216   12.84015367   -0.88225725
 H                 -0.75596127   12.84015493    0.53926150
 C                 -1.51844100   14.00894093   -1.11698214
 H                 -2.57802291   13.96034848   -0.80089580
 H                 -1.53219699   13.96034731   -2.22262017
 C                 -0.92290971   15.35105910   -0.67890873
 H                  0.13560968   15.39941309   -0.99531981
 H                 -0.90977952   15.39941426    0.42581088
 C                 -1.67798309   16.56076290   -1.23434403
 H                 -2.73172052   16.56049729   -0.90580616
 H                 -1.22573426   17.50932671   -0.90166928
 H                 -1.67811203   16.56049611   -2.33811038

