%nprocshared=24
%mem=300GB
%chk=C14H30_0.8.chk
# opt freq b3lyp/cc-pvdz

6-31g

0 1
 C                  0.00000000    0.00000000    0.00000000
 H                  0.00000000    0.00000000    1.10354786
 H                  1.05349029    0.00000000   -0.32859752
 H                 -0.45270609   -0.94799072   -0.33301111
 C                 -0.60370924    0.96815880   -0.44409117
 H                 -0.61683375    0.92016820   -1.54882696
 H                 -1.66224170    0.92016918   -0.12766908
 C                 -0.12669797    2.04159123   -0.09320121
 H                  0.93286040    2.08987482   -0.40936022
 H                 -0.11301834    2.08987668    1.01243578
 C                 -0.72554140    3.01606188   -0.53371309
 H                 -1.78484354    2.96690008   -0.21754262
 H                 -0.73913655    2.96689873   -1.63910867
 C                 -0.24854471    4.08940682   -0.18283386
 H                  0.81069765    4.13884954   -0.49902346
 H                 -0.23498703    4.13885080    0.92251058
 C                 -0.84782273    5.06370944   -0.62366541
 H                 -1.90707594    5.01433166   -0.30750613
 H                 -0.86141180    5.01433049   -1.72901059
 C                 -0.37090117    6.13712980   -0.27284145
 H                  0.68834591    6.18653829   -0.58900027
 H                 -0.35731329    6.18653955    0.83249913
 C                 -0.97019203    7.11144951   -0.71368245
 H                 -2.02943891    7.06202880   -0.39752719
 H                 -0.98378386    7.06202754   -1.81902096
 C                 -0.49329810    8.18491347   -0.36287880
 H                  0.56594912    8.23430147   -0.67902635
 H                 -0.47970021    8.23430264    0.74245797
 C                 -1.09254984    9.15929360   -0.80369103
 H                 -2.15178884    9.10980341   -0.48753122
 H                 -1.10613438    9.10980215   -1.90902419
 C                 -0.61567274   10.23274852   -0.45289977
 H                  0.44363034   10.28196654   -0.76903231
 H                 -0.60204308   10.28196780    0.65248644
 C                 -1.21475280   11.20715274   -0.89358571
 H                 -2.27433471   11.15856029   -0.57749938
 H                 -1.22850879   11.15855912   -1.99922374
 C                 -0.73832777   12.28084728   -0.54312699
 H                  0.32019162   12.32920127   -0.85953806
 H                 -0.72519758   12.32920244    0.56159263
 C                 -1.34238647   13.24861032   -0.98747523
 H                 -2.39612391   13.24834471   -0.65893735
 H                 -0.89013764   14.19717413   -0.65480048
 H                 -1.34251541   13.24834353   -2.09124158

