%nprocshared=24
%mem=300GB
%chk=C14H30_1.5.chk
# opt freq b3lyp/cc-pvdz

6-31g

0 1
 C                  0.00000000    0.00000000    0.00000000
 H                  0.00000000    0.00000000    1.10354786
 H                  1.05349029    0.00000000   -0.32859752
 H                 -0.45270609   -0.94799072   -0.33301111
 C                 -1.13195483    1.81529774   -0.83267095
 H                 -1.14507934    1.76730715   -1.93740673
 H                 -2.19048729    1.76730813   -0.51624886
 C                 -0.23755869    3.82798355   -0.17475227
 H                  0.82199968    3.87626714   -0.49091128
 H                 -0.22387906    3.87626901    0.93088472
 C                 -1.36039013    5.65511603   -1.00071204
 H                 -2.41969227    5.60595422   -0.68454157
 H                 -1.37398528    5.60595288   -2.10610762
 C                 -0.46602134    7.66763779   -0.34281348
 H                  0.59322103    7.71708051   -0.65900309
 H                 -0.45246365    7.71708176    0.76253096
 C                 -1.58966762    9.49445519   -1.16937265
 H                 -2.64892083    9.44507742   -0.85321337
 H                 -1.60325669    9.44507624   -2.27471782
 C                 -0.69543970   11.50711838   -0.51157771
 H                  0.36380738   11.55652687   -0.82773654
 H                 -0.68185182   11.55652813    0.59376287
 C                 -1.81911006   13.33396782   -1.33815459
 H                 -2.87835693   13.28454712   -1.02199933
 H                 -1.83270188   13.28454586   -2.44349310
 C                 -0.92493393   15.34671276   -0.68039775
 H                  0.13431329   15.39610076   -0.99654531
 H                 -0.91133605   15.39610193    0.42493902
 C                 -2.04853094   17.17367549   -1.50692068
 H                 -3.10776995   17.12418531   -1.19076087
 H                 -2.06211549   17.12418405   -2.61225384
 C                 -1.15438638   19.18640348   -0.84918706
 H                 -0.09508330   19.23562150   -1.16531960
 H                 -1.14075673   19.23562276    0.25619914
 C                 -2.27766150   21.01341140   -1.67547320
 H                 -3.33724341   20.96481894   -1.35938687
 H                 -2.29141749   20.96481777   -2.78111124
 C                 -1.38436457   23.02658865   -1.01836310
 H                 -0.32584517   23.07494264   -1.33477418
 H                 -1.37123438   23.07494381    0.08635652
 C                 -2.51697464   24.84114435   -1.85151605
 H                 -3.57071207   24.84087874   -1.52297817
 H                 -2.06472580   25.78970816   -1.51884130
 H                 -2.51710358   24.84087755   -2.95528240

