%nprocshared=24
%mem=300GB
%chk=C14H30_3.chk
# opt freq b3lyp/cc-pvdz

6-31g

0 1
 C                  0.00000000    0.00000000    0.00000000
 H                  0.00000000    0.00000000    1.10354786
 H                  1.05349029    0.00000000   -0.32859752
 H                 -0.45270609   -0.94799072   -0.33301111
 C                 -2.26390965    3.63059549   -1.66534190
 H                 -2.27703417    3.58260489   -2.77007768
 H                 -3.32244212    3.58260587   -1.34891981
 C                 -0.47511738    7.65596711   -0.34950454
 H                  0.58444099    7.70425069   -0.66566355
 H                 -0.46143775    7.70425256    0.75613244
 C                 -2.72078025   11.31023205   -2.00142408
 H                 -3.78008240   11.26107025   -1.68525361
 H                 -2.73437541   11.26106890   -3.10681966
 C                 -0.93204268   15.33527558   -0.68562696
 H                  0.12719969   15.38471830   -1.00181657
 H                 -0.91848499   15.38471956    0.41971748
 C                 -3.17933524   18.98891039   -2.33874530
 H                 -4.23858846   18.93953261   -2.02258602
 H                 -3.19292431   18.93953144   -3.44409047
 C                 -1.39087940   23.01423675   -1.02315542
 H                 -0.33163232   23.06364524   -1.33931425
 H                 -1.37729152   23.06364650    0.08218516
 C                 -3.63822011   26.66793565   -2.67630918
 H                 -4.69746699   26.61851495   -2.36015392
 H                 -3.65181194   26.61851369   -3.78164769
 C                 -1.84986787   30.69342552   -1.36079551
 H                 -0.79062064   30.74281352   -1.67694306
 H                 -1.83626998   30.74281469   -0.25545874
 C                 -4.09706188   34.34735099   -3.01384136
 H                 -5.15630089   34.29786080   -2.69768155
 H                 -4.11064643   34.29785954   -4.11917452
 C                 -2.30877276   38.37280695   -1.69837412
 H                 -1.24946968   38.42202497   -2.01450666
 H                 -2.29514311   38.42202623   -0.59298792
 C                 -4.55532301   42.02682279   -3.35094641
 H                 -5.61490491   41.97823034   -3.03486008
 H                 -4.56907899   41.97822917   -4.45658444
 C                 -2.76872913   46.05317729   -2.03672620
 H                 -1.71020974   46.10153129   -2.35313728
 H                 -2.75559894   46.10153246   -0.93200658
 C                 -5.03394928   49.68228869   -3.70303210
 H                 -6.08768671   49.68202308   -3.37449423
 H                 -4.58170044   50.63085251   -3.37035735
 H                 -5.03407822   49.68202190   -4.80679845

