%nprocshared=24
%mem=300GB
%chk=C14H30_z.chk
# opt freq b3lyp/cc-pvdz

6-31g

0 1
 C              
 H                  1            B1
 H                  1            B2    2            A1
 H                  1            B3    2            A2    3            D1    0
 C                  1            B4    4            A3    2            D2    0
 H                  5            B5    1            A4    4            D3    0
 H                  5            B6    1            A5    4            D4    0
 C                  5            B7    1            A6    4            D5    0
 H                  8            B8    5            A7    1            D6    0
 H                  8            B9    5            A8    1            D7    0
 C                  8           B10    5            A9    1            D8    0
 H                 11           B11    8           A10    5            D9    0
 H                 11           B12    8           A11    5           D10    0
 C                 11           B13    8           A12    5           D11    0
 H                 14           B14   11           A13    8           D12    0
 H                 14           B15   11           A14    8           D13    0
 C                 14           B16   11           A15    8           D14    0
 H                 17           B17   14           A16   11           D15    0
 H                 17           B18   14           A17   11           D16    0
 C                 17           B19   14           A18   11           D17    0
 H                 20           B20   17           A19   14           D18    0
 H                 20           B21   17           A20   14           D19    0
 C                 20           B22   17           A21   14           D20    0
 H                 23           B23   20           A22   17           D21    0
 H                 23           B24   20           A23   17           D22    0
 C                 23           B25   20           A24   17           D23    0
 H                 26           B26   23           A25   20           D24    0
 H                 26           B27   23           A26   20           D25    0
 C                 26           B28   23           A27   20           D26    0
 H                 29           B29   26           A28   23           D27    0
 H                 29           B30   26           A29   23           D28    0
 C                 29           B31   26           A30   23           D29    0
 H                 32           B32   29           A31   26           D30    0
 H                 32           B33   29           A32   26           D31    0
 C                 32           B34   29           A33   26           D32    0
 H                 35           B35   32           A34   29           D33    0
 H                 35           B36   32           A35   29           D34    0
 C                 35           B37   32           A36   29           D35    0
 H                 38           B38   35           A37   32           D36    0
 H                 38           B39   35           A38   32           D37    0
 C                 38           B40   35           A39   32           D38    0
 H                 41           B41   38           A40   35           D39    0
 H                 41           B42   38           A41   35           D40    0
 H                 41           B43   38           A42   35           D41    0

   B4             1.53042747
   B7             1.53242083
   B10            1.53208254
   B13            1.53231414
   B16            1.53232472
   B19            1.53234038
   B22            1.53235379
   B25            1.53236740
   B28            1.53237698
   B31            1.53234489
   B34            1.53223928
   B37            1.53226858
   B40            1.53036841
   B1             1.10354786
   B2             1.10354797
   B3             1.10205517
   B5             1.10585555
   B6             1.10585574
   B8             1.10677539
   B9             1.10677539
   B11            1.10657204
   B12            1.10657184
   B14            1.10653280
   B15            1.10653280
   B17            1.10653162
   B18            1.10653102
   B20            1.10652699
   B21            1.10652779
   B23            1.10652632
   B24            1.10652632
   B26            1.10652299
   B27            1.10652319
   B29            1.10652319
   B30            1.10652399
   B32            1.10656460
   B33            1.10656539
   B35            1.10679068
   B36            1.10679087
   B38            1.10585595
   B39            1.10585535
   B41            1.10376618
   B42            1.10225896
   B43            1.10376639
   A1           107.32338931
   A2           107.58815388
   A3           111.59578689
   A4           109.50484983
   A5           109.50483381
   A6           113.37273553
   A7           109.20425476
   A8           109.20425476
   A9           113.77664065
   A10          109.25076799
   A11          109.25080087
   A12          113.77540649
   A13          109.25772673
   A14          109.25772673
   A15          113.75059483
   A16          109.25427476
   A17          109.25425628
   A18          113.75611449
   A19          109.25381727
   A20          109.25380284
   A21          113.75600719
   A22          109.25246637
   A23          109.25246637
   A24          113.75839491
   A25          109.25180730
   A26          109.25177326
   A27          113.76191263
   A28          109.24731014
   A29          109.24729572
   A30          113.76256386
   A31          109.24397034
   A32          109.24395593
   A33          113.77116507
   A34          109.28764313
   A35          109.28761023
   A36          113.79954317
   A37          109.17897660
   A38          109.17895695
   A39          113.38104610
   A40          111.27282752
   A41          111.60896741
   A42          111.27279299
   D1           115.52646957
   D2          -122.32431752
   D3           -57.80584304
   D4            57.80584247
   D5          -180.00000000
   D6            57.60412331
   D7           -57.60420488
   D8           180.00000000
   D9            57.63170544
   D10          -57.63163696
   D11          180.00000000
   D12           57.63669685
   D13          -57.63669685
   D14          180.00000000
   D15           57.63304616
   D16          -57.63308527
   D17          180.00000000
   D18           57.63276243
   D19          -57.63279179
   D20          180.00000000
   D21           57.63176555
   D22          -57.63176555
   D23          180.00000000
   D24           57.63105971
   D25          -57.63112755
   D26          180.00000000
   D27           57.62907813
   D28          -57.62910749
   D29          180.00000000
   D30           57.62549613
   D31          -57.62552549
   D32          180.00000000
   D33           57.64422673
   D34          -57.64429520
   D35          180.00000000
   D36           57.62308219
   D37          -57.62312069
   D38          180.00000000
   D39           59.80931644
   D40          180.00000000
   D41          -59.80938492

