%nprocshared=24
%mem=300GB
%chk=C14H30_2.chk
# opt freq b3lyp/cc-pvdz

6-31g

0 1
 C                  0.00000000    0.00000000    0.00000000
 H                  0.00000000    0.00000000    1.10354786
 H                  1.05349029    0.00000000   -0.32859752
 H                 -0.45270609   -0.94799072   -0.33301111
 C                 -1.50927310    2.42039699   -1.11022793
 H                 -1.52239762    2.37240640   -2.21496372
 H                 -2.56780556    2.37240738   -0.79380584
 C                 -0.31674492    5.10397807   -0.23300303
 H                  0.74281345    5.15226166   -0.54916204
 H                 -0.30306529    5.15226352    0.87263396
 C                 -1.81385350    7.54015470   -1.33428272
 H                 -2.87315564    7.49099290   -1.01811225
 H                 -1.82744865    7.49099155   -2.43967830
 C                 -0.62136178   10.22351706   -0.45708464
 H                  0.43788058   10.27295977   -0.77327425
 H                 -0.60780410   10.27296103    0.64825980
 C                 -2.11955683   12.65927359   -1.55916353
 H                 -3.17881004   12.60989581   -1.24300425
 H                 -2.13314589   12.60989464   -2.66450871
 C                 -0.92725293   15.34282450   -0.68210361
 H                  0.13199415   15.39223299   -0.99826244
 H                 -0.91366505   15.39223425    0.42323697
 C                 -2.42548008   17.77862377   -1.78420612
 H                 -3.48472695   17.72920306   -1.46805086
 H                 -2.43907190   17.72920180   -2.88954463
 C                 -1.23324524   20.46228368   -0.90719700
 H                 -0.17399802   20.51167168   -1.22334456
 H                 -1.21964736   20.51167285    0.19813977
 C                 -2.73137459   22.89823399   -2.00922757
 H                 -3.79061359   22.84874381   -1.69306777
 H                 -2.74495914   22.84874255   -3.11456073
 C                 -1.53918184   25.58187130   -1.13224941
 H                 -0.47987876   25.63108932   -1.44838195
 H                 -1.52555219   25.63109058   -0.02686321
 C                 -3.03688200   28.01788186   -2.23396427
 H                 -4.09646391   27.96928941   -1.91787794
 H                 -3.05063799   27.96928824   -3.33960231
 C                 -1.84581942   30.70211820   -1.35781747
 H                 -0.78730003   30.75047219   -1.67422854
 H                 -1.83268923   30.75047336   -0.25309785
 C                 -3.35596619   33.12152579   -2.46868807
 H                 -4.40970362   33.12126018   -2.14015019
 H                 -2.90371735   34.07008961   -2.13601332
 H                 -3.35609512   33.12125900   -3.57245442

