%chk=Be2_10.chk
#

sto-6g

0 1
 Be                0.0   0.0    0.0
 Be                0.0   0.0   10.0



