%chk=Be2_2.4.chk
#

sto-6g

0 1
 Be                0.0   0.0    0.0
 Be                0.0   0.0    2.4



