%chk=H30_3.chk
#

sto-6g 6D meta_Lowdin trans_dipo

0 1
 H                 0.0  0.0   -45.0
 H                 0.0  0.0   -42.0
 H                 0.0  0.0   -39.0
 H                 0.0  0.0   -36.0
 H                 0.0  0.0   -33.0
 H                 0.0  0.0   -30.0
 H                 0.0  0.0   -27.0
 H                 0.0  0.0   -24.0
 H                 0.0  0.0   -21.0
 H                 0.0  0.0   -18.0
 H                 0.0  0.0   -15.0
 H                 0.0  0.0   -12.0
 H                 0.0  0.0   -9.0
 H                 0.0  0.0   -6.0
 H                 0.0  0.0   -3.0
 H                 0.0  0.0   0.0
 H                 0.0  0.0   3.0
 H                 0.0  0.0   6.0
 H                 0.0  0.0   9.0
 H                 0.0  0.0   12.0
 H                 0.0  0.0   15.0
 H                 0.0  0.0   18.0
 H                 0.0  0.0   21.0
 H                 0.0  0.0   24.0
 H                 0.0  0.0   27.0
 H                 0.0  0.0   30.0
 H                 0.0  0.0   33.0
 H                 0.0  0.0   36.0
 H                 0.0  0.0   39.0
 H                 0.0  0.0   42.0

