%chk=C2.chk
#

cc-pVTZ

0 1
 C                0.0   0.0    0.0
 C                0.0   0.0    1.25

