%chk=C2_1.chk
#

cc-pVTZ

0 1
 C                0.0   0.0    0.0
 C                0.0   0.0    1.0

