%chk=C2_2.chk
#

cc-pVTZ

0 1
 C                0.0   0.0    0.0
 C                0.0   0.0    2.0

