%chk=C2_3.chk
#

cc-pVTZ

0 1
 C                0.0   0.0    0.0
 C                0.0   0.0    3.0

