%chk=C2_4.chk
#

cc-pVTZ

0 1
 C                0.0   0.0    0.0
 C                0.0   0.0    4.0

