%chk=He2_5.chk
#

3-21g 6D meta_Lowdin trans_dipo

0 1
 He                0.0   0.0   0.0
 He                0.0   0.0   5.0

