%chk=He2_Re.chk
#

3-21g 3-21g 6D meta_Lowdin trans_dipo

0 1
 He                0.0   0.0   0.0
 He                0.0   0.0   4.27289

