%nprocshared=24
%mem=300GB
%chk=C13H28.chk
# opt freq b3lyp/cc-pvdz

6-31g

0 1
 C                  0.00000000    0.00000000    0.00000000
 H                  0.00000000    0.00000000    1.10362613
 H                  1.05356750    0.00000000   -0.32860894
 H                 -0.45267046   -0.94810462   -0.33298613
 C                 -0.75470549    1.21017208   -0.55517497
 H                 -0.76785586    1.16216286   -1.65998298
 H                 -1.81331614    1.16215914   -0.23876677
 C                 -0.15848830    2.55193665   -0.11657953
 H                  0.90113513    2.60022744   -0.43276287
 H                 -0.14478852    2.60020462    0.98912796
 C                 -0.90697389    3.77008165   -0.66713547
 H                 -1.96634386    3.72097014   -0.35094198
 H                 -0.92057239    3.72100198   -1.77260336
 C                 -0.31059861    5.11162155   -0.22841380
 H                  0.74871731    5.16099818   -0.54461602
 H                 -0.29704063    5.16097443    0.87700566
 C                 -1.05957599    6.32955517   -0.77934765
 H                 -2.11890363    6.28025692   -0.46317145
 H                 -1.07315821    6.28028288   -1.88477130
 C                 -0.46325289    7.67113038   -0.34066437
 H                  0.59606818    7.72045849   -0.65684392
 H                 -0.44967391    7.72043506    0.76475465
 C                 -1.21227409    8.88902689   -0.89163046
 H                 -2.27159766    8.83966657   -0.57545026
 H                 -1.22585385    8.83969100   -1.99705130
 C                 -0.61599874   10.23063080   -0.45298231
 H                  0.44332288   10.27990901   -0.76918007
 H                 -0.60243553   10.27988465    0.65244250
 C                 -1.36506738   11.44848283   -1.00398328
 H                 -2.42441273   11.39892978   -0.68777815
 H                 -1.37863120   11.39895414   -2.10943214
 C                 -0.76931116   12.79020447   -0.56571701
 H                  0.29019174   12.84059640   -0.88197805
 H                 -0.75575193   12.84057280    0.53989805
 C                 -1.51824539   14.00830852   -1.11661911
 H                 -2.57670760   13.95779313   -0.80009978
 H                 -1.53124872   13.95781740   -2.22131703
 C                 -0.91537046   15.34328537   -0.67311636
 H                  0.13244944   15.43962480   -1.00595359
 H                 -1.47560470   16.19827357   -1.08521521
 H                 -0.92111419   15.43960042    0.42628308

