%nprocshared=24
%mem=300GB
%chk=C13H28_1.5.chk
# opt freq b3lyp/cc-pvdz

6-31g

0 1
 C                  0.00000000    0.00000000    0.00000000
 H                  0.00000000    0.00000000    1.10362613
 H                  1.05356750    0.00000000   -0.32860894
 H                 -0.45267046   -0.94810462   -0.33298613
 C                 -1.13205824    1.81525811   -0.83276245
 H                 -1.14520861    1.76724890   -1.93757046
 H                 -2.19066889    1.76724517   -0.51635425
 C                 -0.23773245    3.82790498   -0.17486930
 H                  0.82189098    3.87619577   -0.49105263
 H                 -0.22403267    3.87617294    0.93083820
 C                 -1.36046084    5.65512248   -1.00070320
 H                 -2.41983081    5.60601097   -0.68450972
 H                 -1.37405934    5.60604281   -2.10617110
 C                 -0.46589791    7.66743232   -0.34262071
 H                  0.59341801    7.71680895   -0.65882292
 H                 -0.45233994    7.71678521    0.76279876
 C                 -1.58936398    9.49433276   -1.16902148
 H                 -2.64869163    9.44503450   -0.85284527
 H                 -1.60294620    9.44506047   -2.27444512
 C                 -0.69487933   11.50669557   -0.51099656
 H                  0.36444174   11.55602369   -0.82717611
 H                 -0.68130035   11.55600025    0.59442247
 C                 -1.81841114   13.33354033   -1.33744569
 H                 -2.87773470   13.28418001   -1.02126549
 H                 -1.83199089   13.28420445   -2.44286653
 C                 -0.92399812   15.34594620   -0.67947347
 H                  0.13532351   15.39522441   -0.99567123
 H                 -0.91043491   15.39520005    0.42595135
 C                 -2.04760106   17.17272425   -1.50597493
 H                 -3.10694642   17.12317120   -1.18976979
 H                 -2.06116489   17.12319556   -2.61142378
 C                 -1.15396673   19.18530671   -0.84857551
 H                 -0.09446383   19.23569864   -1.16483655
 H                 -1.14040751   19.23567503    0.25703955
 C                 -2.27736809   21.01246278   -1.67492867
 H                 -3.33583029   20.96194739   -1.35840934
 H                 -2.29037142   20.96197166   -2.77962658
 C                 -1.37305568   23.01492806   -1.00967454
 H                 -0.32523578   23.11126748   -1.34251177
 H                 -1.93328992   23.86991625   -1.42177339
 H                 -1.37879941   23.11124311    0.08972490

