%nprocshared=24
%mem=300GB
%chk=C13H28_3.chk
# opt freq b3lyp/cc-pvdz

6-31g

0 1
 C                  0.00000000    0.00000000    0.00000000
 H                  0.00000000    0.00000000    1.10362613
 H                  1.05356750    0.00000000   -0.32860894
 H                 -0.45267046   -0.94810462   -0.33298613
 C                 -2.26411647    3.63051623   -1.66552491
 H                 -2.27726685    3.58250701   -2.77033292
 H                 -3.32272712    3.58250329   -1.34911671
 C                 -0.47546490    7.65580996   -0.34973859
 H                  0.58415853    7.70410075   -0.66592193
 H                 -0.46176512    7.70407792    0.75596890
 C                 -2.72092168   11.31024496   -2.00140640
 H                 -3.78029165   11.26113345   -1.68521292
 H                 -2.73452018   11.26116528   -3.10687430
 C                 -0.93179582   15.33486464   -0.68524141
 H                  0.12752010   15.38424127   -1.00144363
 H                 -0.91823785   15.38421752    0.42017805
 C                 -3.17872796   18.98866552   -2.33804295
 H                 -4.23805561   18.93936726   -2.02186675
 H                 -3.19231019   18.93939323   -3.44346660
 C                 -1.38975866   23.01339115   -1.02199312
 H                 -0.33043759   23.06271926   -1.33817267
 H                 -1.37617968   23.06269582    0.08342591
 C                 -3.63682228   26.66708067   -2.67489138
 H                 -4.69614584   26.61772035   -2.35871119
 H                 -3.65040203   26.61774478   -3.78031222
 C                 -1.84799623   30.69189240   -1.35894693
 H                 -0.78867461   30.74117061   -1.67514470
 H                 -1.83443302   30.74114625   -0.25352212
 C                 -4.09520213   34.34544850   -3.01194985
 H                 -5.15454748   34.29589545   -2.69574472
 H                 -4.10876596   34.29591981   -4.11739870
 C                 -2.30793347   38.37061342   -1.69715102
 H                 -1.24843057   38.42100535   -2.01341206
 H                 -2.29437424   38.42098175   -0.59153596
 C                 -4.55473617   42.02492555   -3.34985733
 H                 -5.61319838   41.97441016   -3.03333801
 H                 -4.56773950   41.97443444   -4.45455525
 C                 -2.74611137   46.02985611   -2.01934908
 H                 -1.69829147   46.12619554   -2.35218631
 H                 -3.30634561   46.88484431   -2.43144793
 H                 -2.75185510   46.12617116   -0.91994964

