%nprocshared=24
%mem=300GB
%chk=C13H28_0.8.chk
# opt freq b3lyp/cc-pvdz

6-31g

0 1
 C                  0.00000000    0.00000000    0.00000000
 H                  0.00000000    0.00000000    1.10362613
 H                  1.05356750    0.00000000   -0.32860894
 H                 -0.45267046   -0.94810462   -0.33298613
 C                 -0.60376439    0.96813766   -0.44413998
 H                 -0.61691477    0.92012844   -1.54894798
 H                 -1.66237504    0.92012472   -0.12773177
 C                 -0.12679064    2.04154932   -0.09326362
 H                  0.93283279    2.08984011   -0.40944696
 H                 -0.11309086    2.08981729    1.01244387
 C                 -0.72557911    3.01606532   -0.53370837
 H                 -1.78494908    2.96695381   -0.21751489
 H                 -0.73917761    2.96698565   -1.63917627
 C                 -0.24847889    4.08929724   -0.18273104
 H                  0.81083703    4.13867387   -0.49893326
 H                 -0.23492091    4.13865012    0.92268842
 C                 -0.84766079    5.06364414   -0.62347812
 H                 -1.90698843    5.01434588   -0.30730192
 H                 -0.86124301    5.01437184   -1.72890177
 C                 -0.37060231    6.13690431   -0.27253150
 H                  0.68871876    6.18623242   -0.58871105
 H                 -0.35702333    6.18620898    0.83288753
 C                 -0.96981927    7.11122151   -0.71330437
 H                 -2.02914284    7.06186119   -0.39712417
 H                 -0.98339903    7.06188563   -1.81872521
 C                 -0.49279900    8.18450464   -0.36238585
 H                  0.56652263    8.23378285   -0.67858361
 H                 -0.47923578    8.23375849    0.74303896
 C                 -1.09205390    9.15878627   -0.80318663
 H                 -2.15139926    9.10923321   -0.48698149
 H                 -1.10561773    9.10925758   -1.90863548
 C                 -0.61544892   10.23216358   -0.45257361
 H                  0.44405397   10.28255551   -0.76883465
 H                 -0.60188970   10.28253190    0.65304145
 C                 -1.21459631   11.20664681   -0.89329529
 H                 -2.27305852   11.15613142   -0.57677596
 H                 -1.22759965   11.15615570   -1.99799320
 C                 -0.73229637   12.27462830   -0.53849309
 H                  0.31552354   12.37096772   -0.87133032
 H                 -1.29253061   13.12961649   -0.95059193
 H                 -0.73804009   12.37094335    0.56090635

