%nprocshared=24
%mem=300GB
%chk=C13H28_2.chk
# opt freq b3lyp/cc-pvdz

6-31g

0 1
 C                  0.00000000    0.00000000    0.00000000
 H                  0.00000000    0.00000000    1.10362613
 H                  1.05356750    0.00000000   -0.32860894
 H                 -0.45267046   -0.94810462   -0.33298613
 C                 -1.50941098    2.42034415   -1.11034994
 H                 -1.52256136    2.37233493   -2.21515795
 H                 -2.56802163    2.37233121   -0.79394174
 C                 -0.31697660    5.10387331   -0.23315906
 H                  0.74264683    5.15216410   -0.54934240
 H                 -0.30327682    5.15214127    0.87254843
 C                 -1.81394779    7.54016330   -1.33427094
 H                 -2.87331775    7.49105180   -1.01807745
 H                 -1.82754629    7.49108363   -2.43973883
 C                 -0.62119721   10.22324309   -0.45682761
 H                  0.43811870   10.27261973   -0.77302982
 H                 -0.60763924   10.27259598    0.64859186
 C                 -2.11915198   12.65911035   -1.55869530
 H                 -3.17847962   12.60981209   -1.24251910
 H                 -2.13273420   12.60983805   -2.66411895
 C                 -0.92650577   15.34226076   -0.68132875
 H                  0.13281529   15.39158888   -0.99750830
 H                 -0.91292680   15.39156544    0.42409028
 C                 -2.42454819   17.77805378   -1.78326092
 H                 -3.48387175   17.72869346   -1.46708072
 H                 -2.43812794   17.72871789   -2.88868176
 C                 -1.23199749   20.46126160   -0.90596462
 H                 -0.17267586   20.51053981   -1.22216239
 H                 -1.21843428   20.51051545    0.19946019
 C                 -2.73013475   22.89696567   -2.00796657
 H                 -3.78948011   22.84741262   -1.69176143
 H                 -2.74369858   22.84743698   -3.11341542
 C                 -1.53862231   25.58040895   -1.13143401
 H                 -0.47911941   25.63080088   -1.44769505
 H                 -1.52506309   25.63077727   -0.02581895
 C                 -3.03649078   28.01661703   -2.23323822
 H                 -4.09495299   27.96610164   -1.91671889
 H                 -3.04949411   27.96612592   -3.33793614
 C                 -1.83074091   30.68657074   -1.34623272
 H                 -0.78292101   30.78291017   -1.67906995
 H                 -2.39097515   31.54155894   -1.75833157
 H                 -1.83648464   30.78288579   -0.24683328

