%nprocshared=4
%mem=30GB
%chk=C6H8_z.chk
# opt freq b3lyp/cc-pvdz

6-31G

0 1
 C                  0.00000000    0.00000000    0.00000000
 H                  0.00000000    0.00000000    0.87535122
 H                  0.77871781    0.00000000   -0.39979786
 C                 -1.14968675    0.00000000   -0.69904803
 H                 -1.11705326    0.00000000   -1.57379074
 C                 -2.47335010    0.00000000   -0.10426906
 H                 -2.51294419   -0.00000000    0.77018623
 C                 -3.62834609    0.00000000   -0.81201651
 H                 -3.58876988    0.00000000   -1.68647261
 C                 -4.95199310   -0.00000000   -0.21718765
 H                 -4.98457554   -0.00000000    0.65755696
 C                 -6.10172497    0.00000000   -0.91616012
 H                 -6.10180086    0.00000000   -1.79151133
 H                 -6.88041017    0.00000000   -0.51629876

