%nprocshared=4
%mem=30GB
%chk=C6H8_z.chk
# opt freq b3lyp/cc-pvdz

6-31G

0 1
 C                  0.00000000    0.00000000    0.00000000
 H                  0.00000000    0.00000000    4.37675608
 H                  3.89358903    0.00000000   -1.99898931
 C                 -1.14968675    0.00000000   -0.69904803
 H                 -0.98651929    0.00000000   -5.07276157
 C                 -2.47335010    0.00000000   -0.10426906
 H                 -2.67132056   -0.00000000    4.26800740
 C                 -3.62834609    0.00000000   -0.81201651
 H                 -3.43046502    0.00000000   -5.18429702
 C                 -4.95199310   -0.00000000   -0.21718765
 H                 -5.11490531   -0.00000000    4.15653541
 C                 -6.10172497    0.00000000   -0.91616012
 H                 -6.10210440    0.00000000   -5.29291619
 H                 -9.99515099   -0.00000000    1.08314667

