%nprocshared=4
%mem=30GB
%chk=C6H8_z.chk
# opt freq b3lyp/cc-pvdz

6-31G

0 1
 C              
 H                  1            B1
 H                  1            B1    2            A1
 C                  1            B3    3            A2    2            D1    0
 H                  4            B1    1            A3    3            D2    0
 C                  4            B5    1            A4    3            D3    0
 H                  6            B1    4            A5    1            D4    0
 C                  6            B7    4            A6    1            D5    0
 H                  8            B1    6            A7    4            D6    0
 C                  8            B9    6            A8    4            D7    0
 H                 10            B1    8            A9    6            D8    0
 C                 10           B11    8           A10    6            D9    0
 H                 12            B1   10           A11    8           D10    0
 H                 12            B1   10           A12    8           D11    0

   B1             1.09418902
   B3             1.34552881
   B5             1.45115357
   B7             1.35459300
   B9             1.45115911
   B11            1.34552811
   A1           117.17620527
   A2           121.52279311
   A3           119.16449372
   A4           124.50256096
   A5           116.78893818
   A6           124.30482496
   A7           118.90740829
   A8           124.30276378
   A9           116.33166277
   A10          124.50424716
   A11          121.30222140
   A12          121.52186855
   D1           180.00000000
   D2             0.00000000
   D3           180.00000000
   D4             0.00000000
   D5           180.00000000
   D6             0.00000000
   D7           180.00000000
   D8             0.00000000
   D9           180.00000000
   D10            0.00000000
   D11          180.00000000

