%nprocshared=4
%mem=30GB
%chk=C6H8_opt.chk
# opt freq b3lyp/cc-pVDZ

cc-pVDZ

0 1
 C                 -1.77370025   -0.56574923    0.00000000
 H                 -1.24053650   -1.49345415    0.00000000
 H                 -2.84370025   -0.56574923    0.00000000
 C                 -1.09842594    0.60922807    0.00000000
 H                 -1.63158969    1.53693299    0.00000000
 C                  0.44157406    0.60922807    0.00000000
 H                  0.97473781   -0.31847685    0.00000000
 C                  1.12381746    1.78017255   -0.00000000
 H                  0.59617499    2.71102884    0.00000000
 C                  2.66379028    1.77102280   -0.00000000
 H                  3.19143275    0.84016651   -0.00000000
 C                  3.35297869    2.93789313   -0.00000000
 H                  2.83087612    3.87186792    0.00000000
 H                  4.42290315    2.92517876   -0.00000000



