%chk=H16_1.8.chk
#

sto-6g 6D meta_Lowdin trans_dipo

0 1
 H                  0.00000000   -0.00000000    0.0
 H                  0.00000000   -0.00000000    1.8
 H                  0.00000000   -0.00000000    3.6
 H                 -0.00000000    0.00000000    5.4
 H                 -0.00000000    0.00000000    7.2
 H                 -0.00000000    0.00000000    9.0
 H                 -0.00000000    0.00000000    10.8
 H                 -0.00000000    0.00000000    12.6
 H                  0.00000000    0.00000000    14.4
 H                  0.00000000    0.00000000    16.2
 H                  0.00000000    0.00000000    18.0
 H                  0.00000000    0.00000000    19.8
 H                  0.00000000    0.00000000    21.6
 H                 -0.00000000   -0.00000000    23.4
 H                 -0.00000000   -0.00000000    25.2
 H                 -0.00000000   -0.00000000    27.0

