%chk=H16_3.5.chk
#

sto-6g 6D meta_Lowdin trans_dipo

0 1
 H                  0.00000000   -0.00000000    0.0
 H                  0.00000000   -0.00000000    3.5
 H                  0.00000000   -0.00000000    7.0
 H                 -0.00000000    0.00000000    10.5
 H                 -0.00000000    0.00000000    14.0
 H                 -0.00000000    0.00000000    17.5
 H                 -0.00000000    0.00000000    21.0
 H                 -0.00000000    0.00000000    24.5
 H                  0.00000000    0.00000000    28.0
 H                  0.00000000    0.00000000    31.5
 H                  0.00000000    0.00000000    35.0
 H                  0.00000000    0.00000000    38.5
 H                  0.00000000    0.00000000    42.0
 H                 -0.00000000   -0.00000000    45.5
 H                 -0.00000000   -0.00000000    49.0
 H                 -0.00000000   -0.00000000    52.5

