%chk=N2_0.9.chk
#

sto-6g 6D meta_Lowdin trans_dipo

0 1
 N                 0.0   0.0    0.0
 N                 0.0   0.0    0.9

