%nprocshared=24
%mem=300GB
%chk=C14H20_z.chk
# opt=z-matrix freq b3lyp/cc-pvdz 

cc-pVDZ 10

0 1
 C              
 H                  1            B1
 H                  1            B2    2            A1
 C                  1            B3    3            A2    2            D1    0
 H                  4            B4    1            A3    3            D2    0
 C                  4            B5    1            A4    3            D3    0
 H                  6            B6    4            A5    1            D4    0
 H                  6            B7    4            A6    1            D5    0
 C                  6            B8    4            A7    1            D6    0
 H                  9            B9    6            A8    4            D7    0
 C                  9            B3    6            A9    4            D8    0
 H                 11           B11    9           A10    6            D9    0
 C                 11           B12    9           A11    6           D10    0
 H                 13           B13   11           A12    9           D11    0
 H                 13           B14   11           A13    9           D12    0
 C                 13           B15   11           A14    9           D13    0
 H                 16           B16   13           A15   11           D14    0
 C                 16            B3   13           A16   11           D15    0
 H                 18           B18   16           A17   13           D16    0
 C                 18           B19   16           A18   13           D17    0
 H                 20           B20   18           A19   16           D18    0
 H                 20           B21   18           A20   16           D19    0
 C                 20           B22   18           A21   16           D20    0
 H                 23           B23   20           A22   18           D21    0
 C                 23            B3   20           A23   18           D22    0
 H                 25           B25   23           A24   20           D23    0
 C                 25           B26   23           A25   20           D24    0
 H                 27           B27   25           A26   23           D25    0
 H                 27           B28   25           A27   23           D26    0
 C                 27           B29   25           A28   23           D27    0
 H                 30           B30   27           A29   25           D28    0
 C                 30            B3   27           A30   25           D29    0
 H                 32           B32   30           A31   27           D30    0
 H                 32           B33   30           A32   27           D31    0

   B1             1.09509467
   B2             1.09308161
   B3             1.3368
   B4             1.09741199
   B5             1.50990942
   B6             1.10500362
   B7             1.10514402
   B8             1.51006498
   B9             1.09821814
   B11            1.09818746
   B12            1.50999351
   B13            1.10511661
   B14            1.10505913
   B15            1.51028612
   B16            1.09805352
   B18            1.09881453
   B19            1.51008805
   B20            1.10229617
   B21            1.10863133
   B22            1.51032128
   B23            1.09861088
   B25            1.09859077
   B26            1.51007230
   B27            1.10883097
   B28            1.10242773
   B29            1.50968333
   B30            1.09799183
   B32            1.09489160
   B33            1.09303111
   A1           116.98756708
   A2           121.53743449
   A3           119.31709346
   A4           125.20494524
   A5           109.55539183
   A6           108.87610894
   A7           112.37302905
   A8           115.70148381
   A9           125.15542839
   A10          119.15449444
   A11          125.18777550
   A12          109.71776995
   A13          108.92525245
   A14          112.34506571
   A15          115.67617832
   A16          125.16624042
   A17          118.82867558
   A18          125.15692346
   A19          110.03185115
   A20          108.50015938
   A21          112.77987091
   A22          116.02559875
   A23          125.12375674
   A24          118.86571958
   A25          125.09257920
   A26          108.52262739
   A27          110.19357013
   A28          112.86569511
   A29          115.81634541
   A30          125.16753410
   A31          121.49199329
   A32          121.48322295
   D1          -179.67151301
   D2            -0.67352362
   D3          -179.66797346
   D4          -120.45509368
   D5            -3.66088726
   D6           118.29534565
   D7           -61.55159279
   D8           117.62157950
   D9             0.00436523
   D10         -179.09690579
   D11         -120.60052956
   D12           -3.83210145
   D13          118.09412882
   D14          -61.20271455
   D15          117.73668494
   D16            0.35794862
   D17         -179.40398388
   D18           -1.90859567
   D19         -118.37310625
   D20          121.40098091
   D21           58.68776082
   D22         -120.98879012
   D23            0.30214805
   D24         -179.90963519
   D25          118.99321407
   D26            2.38318421
   D27         -121.04441615
   D28          -56.91077974
   D29          122.90942759
   D30           -0.09076304
   D31          179.79467143

