%nprocshared=24
%mem=300GB
%chk=C14H20_0.8.chk
# opt=z-matrix freq b3lyp/cc-pvdz

cc-pVDZ 10

0 1
 C                  0.00000000    0.00000000    0.00000000
 H                  0.00000000    0.00000000    1.09509467
 H                  0.97405051    0.00000000   -0.49603731
 C                 -0.91208444   -0.00522566   -0.55836957
 H                 -0.87081952    0.00052715   -1.65499037
 C                 -2.29865320    0.00136986    0.03930093
 H                 -2.84760947   -0.89935025   -0.28991526
 H                 -2.21390874   -0.05437766    1.13977987
 C                 -3.08798577    1.22736826   -0.35335446
 H                 -2.66679516    2.18871016   -0.03008475
 C                 -3.99540013    1.22036083   -0.91926258
 H                 -4.40931983    0.26006357   -1.25469566
 C                 -4.77499850    2.44698536   -1.32877328
 H                 -5.79744502    2.39507866   -0.91261040
 H                 -4.29379047    3.34021559   -0.89089857
 C                 -4.86409991    2.59632991   -2.82901370
 H                 -3.90614767    2.70993782   -3.35355376
 C                 -5.77035537    2.58238024   -3.39664771
 H                 -6.72507384    2.45614464   -2.86752525
 C                 -5.85820769    2.71898510   -4.89797613
 H                 -4.85235299    2.86983870   -5.32289535
 H                 -6.44504049    3.62930509   -5.13463666
 C                 -6.52585393    1.53418168   -5.55490817
 H                 -7.55125779    1.31556470   -5.22673229
 C                 -6.07635390    0.90719542   -6.29554294
 H                 -5.04722490    1.11920912   -6.61623808
 C                 -6.74525330   -0.27611114   -6.95332524
 H                 -6.80380483   -0.08614256   -8.04419176
 H                 -7.78170528   -0.37700912   -6.59147750
 C                 -5.99484927   -1.56834776   -6.73847167
 H                 -4.94932519   -1.57557884   -7.07375241
 C                 -6.40240956   -2.45033254   -6.29159431
 H                 -7.43832073   -2.48646976   -5.93893331
 H                 -5.80387496   -3.35656298   -6.16822603

