%nprocshared=24
%mem=300GB
%chk=C14H20_1.5.chk
# opt=z-matrix freq b3lyp/cc-pvdz

cc-pVDZ 10

0 1
 C                  0.00000000    0.00000000    0.00000000
 H                  0.00000000    0.00000000    1.09509467
 H                  0.97405051    0.00000000   -0.49603731
 C                 -1.71015833   -0.00979812   -1.04694294
 H                 -1.66889340   -0.00404531   -2.14356375
 C                 -3.09672709   -0.00320260   -0.44927244
 H                 -3.64568335   -0.90392271   -0.77848864
 H                 -3.01198263   -0.05895011    0.65120650
 C                 -3.88605965    1.22279581   -0.84192784
 H                 -3.46486905    2.18413771   -0.51865812
 C                 -5.58746158    1.20965686   -1.90300555
 H                 -6.00138128    0.24935961   -2.23843863
 C                 -6.36705995    2.43628140   -2.31251625
 H                 -7.38950647    2.38437470   -1.89635337
 H                 -5.88585192    3.32951163   -1.87464154
 C                 -6.45616136    2.58562595   -3.81275667
 H                 -5.49820912    2.69923386   -4.33729673
 C                 -8.15539034    2.55947031   -4.87707045
 H                 -9.11010881    2.43323471   -4.34794799
 C                 -8.24324266    2.69607517   -6.37839886
 H                 -7.23738796    2.84692878   -6.80331808
 H                 -8.83007546    3.60639516   -6.61505940
 C                 -8.91088890    1.51127175   -7.03533091
 H                 -9.93629276    1.29265478   -6.70715502
 C                 -8.06807634    0.33567251   -8.42402110
 H                 -7.03894734    0.54768621   -8.74471624
 C                 -8.73697574   -0.84763404   -9.08180339
 H                 -8.79552727   -0.65766546  -10.17266992
 H                 -9.77342772   -0.94853202   -8.71995566
 C                 -7.98657171   -2.13987067   -8.86694983
 H                 -6.94104763   -2.14710174   -9.20223056
 C                 -8.75074726   -3.79359212   -8.02905478
 H                 -9.78665842   -3.82972934   -7.67639378
 H                 -8.15221266   -4.69982256   -7.90568650

