%nprocshared=24
%mem=300GB
%chk=C14H20_2.chk
# opt=z-matrix freq b3lyp/cc-pvdz

cc-pVDZ 10

0 1
 C                  0.00000000    0.00000000    0.00000000
 H                  0.00000000    0.00000000    1.09509467
 H                  0.97405051    0.00000000   -0.49603731
 C                 -2.28021111   -0.01306416   -1.39592392
 H                 -2.23894618   -0.00731135   -2.49254473
 C                 -3.66677987   -0.00646864   -0.79825342
 H                 -4.21573613   -0.90718874   -1.12746962
 H                 -3.58203540   -0.06221615    0.30222552
 C                 -4.45611243    1.21952977   -1.19090882
 H                 -4.03492183    2.18087167   -0.86763910
 C                 -6.72464833    1.20201118   -2.60567910
 H                 -7.13856804    0.24171392   -2.94111218
 C                 -7.50424671    2.42863571   -3.01518980
 H                 -8.52669322    2.37672901   -2.59902692
 H                 -7.02303867    3.32186594   -2.57731509
 C                 -7.59334812    2.57798027   -4.51543022
 H                 -6.63539587    2.69158817   -5.03997028
 C                 -9.85898675    2.54310608   -5.93451526
 H                -10.81370522    2.41687048   -5.40539280
 C                 -9.94683907    2.67971094   -7.43584367
 H                 -8.94098436    2.83056454   -7.86076289
 H                -10.53367187    3.59003093   -7.67250421
 C                -10.61448531    1.49490752   -8.09277572
 H                -11.63988917    1.27629054   -7.76459983
 C                 -9.49073523   -0.07255813   -9.94436264
 H                 -8.46160623    0.13945556  -10.26505779
 C                -10.15963463   -1.25586469  -10.60214494
 H                -10.21818616   -1.06589611  -11.69301146
 H                -11.19608661   -1.35676267  -10.24029720
 C                 -9.40923060   -2.54810131  -10.38729137
 H                 -8.36370652   -2.55533239  -10.72257211
 C                -10.42813133   -4.75306325   -9.27009797
 H                -11.46404250   -4.78920048   -8.91743697
 H                 -9.82959673   -5.65929369   -9.14672969

