%nprocshared=24
%mem=300GB
%chk=C14H20_3.chk
# opt=z-matrix freq b3lyp/cc-pvdz

cc-pVDZ 10

0 1
 C                  0.00000000    0.00000000    0.00000000
 H                  0.00000000    0.00000000    1.09509467
 H                  0.97405051    0.00000000   -0.49603731
 C                 -3.42031666   -0.01959623   -2.09388589
 H                 -3.37905173   -0.01384342   -3.19050669
 C                 -4.80688542   -0.01300071   -1.49621538
 H                 -5.35584168   -0.91372082   -1.82543158
 H                 -4.72214096   -0.06874823   -0.39573644
 C                 -5.59621798    1.21299769   -1.88887078
 H                 -5.17502738    2.17433959   -1.56560106
 C                 -8.99902183    1.18671980   -4.01102620
 H                 -9.41294154    0.22642255   -4.34645928
 C                 -9.77862021    2.41334434   -4.42053691
 H                -10.80106672    2.36143764   -4.00437402
 H                 -9.29741217    3.30657457   -3.98266220
 C                 -9.86772162    2.56268889   -5.92077732
 H                 -8.90976937    2.67629680   -6.44531738
 C                -13.26617956    2.51037761   -8.04940488
 H                -14.22089804    2.38414201   -7.52028242
 C                -13.35403189    2.64698247   -9.55073329
 H                -12.34817718    2.79783608   -9.97565252
 H                -13.94086469    3.55730246   -9.78739383
 C                -14.02167813    1.46217905  -10.20766534
 H                -15.04708199    1.24356208   -9.87948945
 C                -12.33605300   -0.88901943  -12.98504573
 H                -11.30692400   -0.67700573  -13.30574087
 C                -13.00495240   -2.07232598  -13.64282802
 H                -13.06350393   -1.88235740  -14.73369455
 H                -14.04140438   -2.17322396  -13.28098028
 C                -12.25454837   -3.36456261  -13.42797445
 H                -11.20902429   -3.37179368  -13.76325519
 C                -13.78289948   -6.67200552  -11.75218436
 H                -14.81881064   -6.70814274  -11.39952336
 H                -13.18436487   -7.57823596  -11.62881608

