%nprocshared=24
%mem=300GB
%chk=C14H20_4.chk
# opt=z-matrix freq b3lyp/cc-pvdz

cc-pVDZ 10

0 1
 C                  0.00000000    0.00000000    0.00000000
 H                  0.00000000    0.00000000    1.09509467
 H                  0.97405051    0.00000000   -0.49603731
 C                 -4.56042221   -0.02612831   -2.79184785
 H                 -4.51915728   -0.02037550   -3.88846865
 C                 -5.94699097   -0.01953279   -2.19417735
 H                 -6.49594724   -0.92025290   -2.52339354
 H                 -5.86224651   -0.07528031   -1.09369841
 C                 -6.73632354    1.20646561   -2.58683274
 H                 -6.31513293    2.16780751   -2.26356303
 C                -11.27339533    1.17142843   -5.41637330
 H                -11.68731504    0.21113118   -5.75180639
 C                -12.05299371    2.39805297   -5.82588401
 H                -13.07544022    2.34614627   -5.40972112
 H                -11.57178567    3.29128320   -5.38800930
 C                -12.14209512    2.54739752   -7.32612442
 H                -11.18414287    2.66100543   -7.85066449
 C                -16.67337238    2.47764914  -10.16429450
 H                -17.62809085    2.35141355   -9.63517204
 C                -16.76122470    2.61425401  -11.66562292
 H                -15.75537000    2.76510761  -12.09054214
 H                -17.34805750    3.52457399  -11.90228345
 C                -17.42887094    1.42945058  -12.32255496
 H                -18.45427480    1.21083361  -11.99437908
 C                -15.18137078   -1.70548072  -16.02572881
 H                -14.15224178   -1.49346702  -16.34642395
 C                -15.85027017   -2.88878727  -16.68351110
 H                -15.90882170   -2.69881870  -17.77437763
 H                -16.88672216   -2.98968526  -16.32166337
 C                -15.09986614   -4.18102390  -16.46865754
 H                -14.05434207   -4.18825498  -16.80393827
 C                -17.13766762   -8.59094778  -14.23427074
 H                -18.17357878   -8.62708500  -13.88160974
 H                -16.53913302   -9.49717822  -14.11090247

