%chk=H2O-8_1.5.chk
#

6-31G

0 1
 O                  0.00000000    0.00000000    0.00000000
 H                  0.00000000    0.00000000    1.46326500
 H                  1.36970315    0.00000000   -0.51483758
 O                  1.49600024   79.86163455    4.45884632
 H                  1.49600024   79.86163455    5.92211132
 H                  2.86570339   79.86163455    3.94400875
 O                  2.99200048  159.72326910    8.91769265
 H                  3.00081953  159.80540610   10.37862393
 H                  4.35618386  159.61312120    8.39999041
 O                  4.48800072  239.58490365   13.37653897
 H                  4.48800072  239.58490365   14.83980397
 H                  5.85770388  239.58490364   12.86170139
 O                  5.98400096  319.44653819   17.83538530
 H                  5.98400096  319.44653819   19.29865030
 H                  7.35370412  319.44653819   17.32054772
 O                  7.48000120  399.30817274   22.29423162
 H                  7.48882025  399.39030974   23.75516290
 H                  8.84418459  399.19802485   21.77652939
 O                  8.97600145  479.16980729   26.75307795
 H                  8.97600145  479.16980729   28.21634295
 H                 10.34570460  479.16980729   26.23824037
 O                 10.47200169  559.03144184   31.21192427
 H                 10.47200169  559.03144184   32.67518927
 H                 11.84170484  559.03144184   30.69708669

