%chk=H10-H10-H10.chk
#

sto-6g 6D

0 1
 H                 0.0  0.0   -133.5
 H                 0.0  0.0   -132.0
 H                 0.0  0.0   -130.5
 H                 0.0  0.0   -129.0
 H                 0.0  0.0   -127.5
 H                 0.0  0.0   -126.0
 H                 0.0  0.0   -124.5
 H                 0.0  0.0   -123.0
 H                 0.0  0.0   -121.5
 H                 0.0  0.0   -120.0
 H                 0.0  0.0      0.0
 H                 0.0  0.0      1.5
 H                 0.0  0.0      3.0
 H                 0.0  0.0      4.5
 H                 0.0  0.0      6.0
 H                 0.0  0.0      7.5
 H                 0.0  0.0      9.0
 H                 0.0  0.0     10.5
 H                 0.0  0.0     12.0
 H                 0.0  0.0     13.5
 H                 0.0  0.0    133.5
 H                 0.0  0.0    135.0
 H                 0.0  0.0    136.5
 H                 0.0  0.0    138.0
 H                 0.0  0.0    139.5
 H                 0.0  0.0    141.0
 H                 0.0  0.0    142.5
 H                 0.0  0.0    144.0
 H                 0.0  0.0    145.5
 H                 0.0  0.0    147.0

