%chk=H10.chk
#

sto-6g 6D

0 1
 H                 0.0  0.0      0.0
 H                 0.0  0.0      1.5
 H                 0.0  0.0      3.0
 H                 0.0  0.0      4.5
 H                 0.0  0.0      6.0
 H                 0.0  0.0      7.5
 H                 0.0  0.0      9.0
 H                 0.0  0.0     10.5
 H                 0.0  0.0     12.0
 H                 0.0  0.0     13.5

