%nprocshared=8
%mem=30GB
%chk=C6H12_3.chk
# opt freq b3lyp/cc-pvdz

cc-pVDZ

0 1
 C                  0.00000000    0.00000000    0.00000000
 C                  0.00000000    0.00000000    1.53597122
 C                  1.42900448    0.00000000    2.09899445
 C                  2.25600098    1.16534214    1.53579461
 C                  2.25601565    1.16533890   -0.00017603
 C                  0.82701598    1.16532249   -0.56321595
 H                  1.40633053    0.04392830    3.20135380
 H                 -0.53208347    0.90041018    1.89823884
 H                 -0.56262569   -0.86855815    1.91898677
 H                  1.27902617   -2.86515414   -1.08666319
 H                 -3.10174305    0.13164637   -1.14920566
 H                  1.82962758    2.12037721    1.89800569
 H                  3.28990890    1.12149496    1.91887524
 H                  3.94386408    3.77103703   -1.14922753
 H                  3.85231884   -1.53587702   -1.08696106
 H                 -0.65291517    4.03057837    0.22796393
 H                  0.89509810    1.03341210   -3.87029605
 H                  1.92231906   -0.95508263    1.83522335

