%nprocshared=8
%mem=30GB
%chk=C6H12_1.5.chk
# opt freq b3lyp/cc-pvdz

cc-pVDZ

0 1
 C                  0.00000000    0.00000000    0.00000000
 C                  0.00000000    0.00000000    1.53597122
 C                  1.42900448    0.00000000    2.09899445
 C                  2.25600098    1.16534214    1.53579461
 C                  2.25601565    1.16533890   -0.00017603
 C                  0.82701598    1.16532249   -0.56321595
 H                  1.40633053    0.04392830    3.20135380
 H                 -0.53208347    0.90041018    1.89823884
 H                 -0.56262569   -0.86855815    1.91898677
 H                  0.63951308   -1.43257707   -0.54333160
 H                 -1.55087152    0.06582319   -0.57460283
 H                  1.82962758    2.12037721    1.89800569
 H                  3.28990890    1.12149496    1.91887524
 H                  3.09993987    2.46818797   -0.57470178
 H                  3.05416725   -0.18526906   -0.54356855
 H                  0.08705040    2.59795043   -0.16762601
 H                  0.86105704    1.09936729   -2.21675600
 H                  1.92231906   -0.95508263    1.83522335

