%nprocshared=8
%mem=30GB
%chk=C6H12_2.chk
# opt freq b3lyp/cc-pvdz

cc-pVDZ

0 1
 C                  0.00000000    0.00000000    0.00000000
 C                  0.00000000    0.00000000    1.53597122
 C                  1.42900448    0.00000000    2.09899445
 C                  2.25600098    1.16534214    1.53579461
 C                  2.25601565    1.16533890   -0.00017603
 C                  0.82701598    1.16532249   -0.56321595
 H                  1.40633053    0.04392830    3.20135380
 H                 -0.53208347    0.90041018    1.89823884
 H                 -0.56262569   -0.86855815    1.91898677
 H                  0.85268411   -1.91010276   -0.72444213
 H                 -2.06782870    0.08776425   -0.76613711
 H                  1.82962758    2.12037721    1.89800569
 H                  3.28990890    1.12149496    1.91887524
 H                  3.38124794    2.90247099   -0.76621036
 H                  3.32021778   -0.63547171   -0.72469938
 H                 -0.15960479    3.07549308   -0.03576269
 H                  0.87240406    1.07738223   -2.76793602
 H                  1.92231906   -0.95508263    1.83522335

