%nprocshared=24
%mem=300GB
%chk=C4H10_1.5.chk
# opt freq b3lyp/cc-pvdz

6-31g

0 1
 C                  0.00000000    0.00000000    0.00000000
 H                  0.00000000    0.00000000    1.10377088
 H                  1.05363543    0.00000000   -0.32887478
 H                 -0.45258961   -0.94841899   -0.33285347
 C                 -1.13154085    1.81583583   -0.83219995
 H                 -1.14476103    1.76874084   -1.93737734
 H                 -2.19050592    1.76862015   -0.51570510
 C                 -0.23824843    3.82921895   -0.17492964
 H                  0.82071251    3.87644401   -0.49143994
 H                 -0.22501208    3.87630357    0.93024724
 C                 -1.36982661    5.64505477   -1.00707883
 H                 -2.42348857    5.64497568   -0.67828564
 H                 -0.91731462    6.59347374   -0.67411983
 H                 -1.36974082    5.64513386   -2.11084868

