%nprocshared=24
%mem=300GB
%chk=C4H10_0.8.chk
# opt freq b3lyp/cc-pvdz

6-31g

0 1
 C                  0.00000000    0.00000000    0.00000000
 H                  0.00000000    0.00000000    1.10377088
 H                  1.05363543    0.00000000   -0.32887478
 H                 -0.45258961   -0.94841899   -0.33285347
 C                 -0.60348845    0.96844577   -0.44383997
 H                 -0.61670864    0.92135079   -1.54901737
 H                 -1.66245352    0.92123010   -0.12734512
 C                 -0.12706583    2.04225010   -0.09329581
 H                  0.93189511    2.08947517   -0.40980611
 H                 -0.11382948    2.08933473    1.01188107
 C                 -0.73057419    3.01069588   -0.53710871
 H                 -1.78423616    3.01061679   -0.20831552
 H                 -0.27806220    3.95911485   -0.20414971
 H                 -0.73048840    3.01077497   -1.64087855

