%nprocshared=24
%mem=300GB
%chk=C4H10_4.chk
# opt freq b3lyp/cc-pvdz

6-31g

0 1
 C                  0.00000000    0.00000000    0.00000000
 H                  0.00000000    0.00000000    1.10377088
 H                  1.05363543    0.00000000   -0.32887478
 H                 -0.45258961   -0.94841899   -0.33285347
 C                 -3.01744226    4.84222887   -2.21919985
 H                 -3.03066245    4.79513388   -3.32437725
 H                 -4.07640733    4.79501319   -1.90270501
 C                 -0.63532915   10.21125052   -0.46647903
 H                  0.42363179   10.25847559   -0.78298933
 H                 -0.62209280   10.25833515    0.63869784
 C                 -3.65287096   15.05347938   -2.68554355
 H                 -4.70653293   15.05340029   -2.35675036
 H                 -3.20035897   16.00189835   -2.35258455
 H                 -3.65278518   15.05355847   -3.78931340

