%nprocshared=24
%mem=300GB
%chk=C4H10_2.chk
# opt freq b3lyp/cc-pvdz

6-31g

0 1
 C                  0.00000000    0.00000000    0.00000000
 H                  0.00000000    0.00000000    1.10377088
 H                  1.05363543    0.00000000   -0.32887478
 H                 -0.45258961   -0.94841899   -0.33285347
 C                 -1.50872113    2.42111443   -1.10959993
 H                 -1.52194132    2.37401945   -2.21477733
 H                 -2.56768620    2.37389876   -0.79310508
 C                 -0.31766458    5.10562526   -0.23323952
 H                  0.74129636    5.15285033   -0.54974982
 H                 -0.30442822    5.15270988    0.87193736
 C                 -1.82643548    7.52673969   -1.34277178
 H                 -2.88009744    7.52666060   -1.01397859
 H                 -1.37392349    8.47515866   -1.00981278
 H                 -1.82634969    7.52681879   -2.44654162

