%nprocshared=24
%mem=300GB
%chk=C4H10.chk
# opt freq b3lyp/cc-pvdz

6-31g

0 1
 C                 -1.75879394    0.10887772    0.00000000
 H                 -1.40213951   -0.89993228    0.00000000
 H                 -1.40212110    0.61327591   -0.87365150
 H                 -2.82879394    0.10889090    0.00000000
 C                 -1.24545172    0.83483399    1.25740497
 H                 -1.60050807    1.84420708    1.25642745
 H                 -1.60372083    0.33156556    2.13105486
 C                  0.29454568    0.83237764    1.25881364
 H                  0.65281416    1.33531952    0.38497547
 H                  0.64960191   -0.17699505    1.26016738
 C                  0.80788816    1.55880296    2.51594759
 H                  0.44955135    1.05590866    3.38978513
 H                  1.87788620    1.55702467    2.51696778
 H                  0.45289979    2.56819947    2.51455266

