%nprocshared=8
%mem=30GB
%chk=benzene.chk
# opt freq b3lyp/cc-pvdz

cc-pVDZ

0 1
 C                 -1.33672081    0.41273396   -0.00000063
 C                 -0.29889600    1.36664400   -0.00009800
 C                  1.03404000    0.94227100    0.00007700
 C                  1.33302900   -0.42448900   -0.00001400
 C                  0.29900900   -1.36661700   -0.00007600
 C                 -1.03411700   -0.94219000    0.00007700
 H                 -2.38058839    0.73517683    0.00007044
 H                 -0.53251000    2.43391800   -0.00005938
 H                  1.84170300    1.67799800    0.00018000
 H                  2.37412200   -0.75576200    0.00000500
 H                  0.53236900   -2.43393800   -0.00003500
 H                 -1.84160500   -1.67812200    0.00007400

