%nprocshared=4
%mem=30GB
%chk=BH3_0.7.chk
# opt=z-matrix freq b3lyp/cc-pvdz

sto-6g

0 1
 B                  0.00000000    0.00000000    0.00000000
 H                  0.00000000    0.00000000    0.84301700
 H                  0.73007413    0.00000000   -0.42150852
 H                 -0.73007413    0.00000000   -0.42150852

