%nprocshared=4
%mem=30GB
%chk=BH3_3.chk
# opt=z-matrix freq b3lyp/cc-pvdz

sto-6g

0 1
 B                  0.00000000    0.00000000    0.00000000
 H                  0.00000000    0.00000000    3.61293000
 H                  3.12888912    0.00000000   -1.80646507
 H                 -3.12888912    0.00000000   -1.80646507

