%nprocshared=4
%mem=30GB
%chk=BH3_0.8.chk
# opt=z-matrix freq b3lyp/cc-pvdz

sto-6g

0 1
 B                  0.00000000    0.00000000    0.00000000
 H                  0.00000000    0.00000000    0.96344800
 H                  0.83437043    0.00000000   -0.48172402
 H                 -0.83437043    0.00000000   -0.48172402

