%nprocshared=4
%mem=30GB
%chk=BH3_2.chk
# opt=z-matrix freq b3lyp/cc-pvdz

sto-6g

0 1
 B                  0.00000000    0.00000000    0.00000000
 H                  0.00000000    0.00000000    2.40862000
 H                  2.08592608    0.00000000   -1.20431005
 H                 -2.08592608    0.00000000   -1.20431005

