%chk=BH3.chk
#

cc-pVDZ

0 1
 B                 -2.75752777    0.41996830    0.00000000
 H                 -1.72627777    0.77720378    1.23750000
 H                 -3.50752777    1.71900640    0.00000000
 H                 -3.65752777   -1.13887743    0.00000000

