%chk=H2O_2.chk
#

cc-pVDZ

0 1
 O                  0.00000000    0.00000000    0.00000000
 H                  0.00000000    0.00000000    1.95101998
 H                  1.82627085    0.00000000   -0.68645010

