%chk=Cr2.chk
#

cc-pVTZ

0 1
 Cr                0.0   0.0    0.0
 Cr                0.0   0.0    1.7

