%nprocshared=8
%mem=30GB
%chk=C4H10_z.chk
# opt freq b3lyp/cc-pvdz

cc-pVDZ

0 1
 C                  0.00000000    0.00000000    0.00000000
 H                  0.00000000    0.00000000    1.10232816
 H                  1.05224927    0.00000000   -0.33328911
 H                 -0.45054444   -0.95091129   -0.33329216
 C                 -3.04279121    4.80870452   -2.25715943
 H                 -2.59048872    5.74409102   -1.87731753
 H                 -4.08182799    4.80035297   -1.87749823
 C                 -3.14481097    4.97116181   -8.38382951
 H                 -3.59713022    4.03578308   -8.76367313
 H                 -2.10577397    4.97949431   -8.76348828
 C                 -6.18746022    9.77995616  -10.64098892
 H                 -5.73696856   10.73085734  -10.30759318
 H                 -6.18734952    9.78002621  -11.74331706
 H                 -7.23974121    9.77991280  -10.30780340

