%nprocshared=4
%mem=30GB
%chk=CH4_z.chk
# opt=z-matrix freq b3lyp/cc-pvdz

cc-pVDZ

0 1
 C                  0.00000000    0.00000000    0.00000000
 H                  0.00000000    0.00000000    4.40087784
 H                  4.14918742    0.00000000   -1.46695928
 H                 -2.07459371   -3.59330171   -1.46695928
 H                 -2.07459371    3.59330171   -1.46695928

