%nprocshared=4
%mem=30GB
%chk=CH4_opt.chk
# opt(z-matrix) freq b3lyp/cc-pvdz

cc-pVDZ

0 1
 C                  0.11647254    0.30782029    0.00000000
 H                  0.44979443   -0.63499280    0.00000000
 H                  0.44981164    0.77922047    0.81649673
 H                  0.44981164    0.77922047   -0.81649673
 H                 -0.88352746    0.30783261    0.00000000

