%chk=H8-H8.chk
#

sto-6g 6D meta_Lowdin trans_dipo

0 1
 H                 0.0  0.0   -12.0
 H                 0.0  0.0   -10.5
 H                 0.0  0.0   -9.0
 H                 0.0  0.0   -7.5
 H                 0.0  0.0   -6.0
 H                 0.0  0.0   -4.5
 H                 0.0  0.0   -3.0
 H                 0.0  0.0   -1.5
 H                 0.0  0.0   120.0
 H                 0.0  0.0   122.0
 H                 0.0  0.0   124.0
 H                 0.0  0.0   126.0
 H                 0.0  0.0   128.0
 H                 0.0  0.0   130.0
 H                 0.0  0.0   132.0
 H                 0.0  0.0   134.0

