%chk=H2O.chk
#

sto-6g 6D meta_Lowdin trans_dipo

0 1
 O                  0.02342331   -1.04706978    0.00000000
 H                  0.99883218   -1.06111564    0.00000000
 H                 -0.30661840   -0.12908709    0.00000000

