%chk=H2O_2.chk
#

sto-6g 6D meta_Lowdin trans_dipo

0 1
 O                  0.02342331   -1.04706978    0.00000000
 H                  1.97424106   -1.07516150    0.00000000
 H                 -0.63666012    0.78889561    0.00000000

