%chk=H2O_1.5.chk
#

sto-6g 6D meta_Lowdin trans_dipo

0 1
 O                  0.02342331   -1.04706978    0.00000000
 H                  1.48653662   -1.06813857    0.00000000
 H                 -0.47163926    0.32990426    0.00000000

