%chk=H2O_3.chk
#

sto-6g 6D meta_Lowdin trans_dipo

0 1
 O                  0.02342331   -1.04706978    0.00000000
 H                  2.94964994   -1.08920736    0.00000000
 H                 -0.96670183    1.70687830    0.00000000

