%chk=H2O_4.chk
#

sto-6g 6D meta_Lowdin trans_dipo

0 1
 O                  0.02342331   -1.04706978    0.00000000
 H                  3.92505881   -1.10325322    0.00000000
 H                 -1.29674354    2.62486100    0.00000000

