%chk=H2O_0.75.chk
#

sto-6g 6D meta_Lowdin trans_dipo

0 1
 O                  0.02342331   -1.04706978    0.00000000
 H                  0.75497997   -1.05760417    0.00000000
 H                 -0.22410797   -0.35858276    0.00000000

